&control
   prefix = 'h2o'
   calculation = 'scf'
   restart_mode = 'from_scratch'
   pseudo_dir = './pseudo/'
   outdir = '/tmp/ceresoli/'
   tprnfor = .true.
   verbosity = 'high'
/
&system
   ecutwfc = 40
   ecutrho = 400
   ibrav = 1
   celldm(1) = 20
   nat = 3
   ntyp = 2
/
&electrons
   diagonalization = 'cg'
   electron_maxstep = 200
   conv_thr = 1e-9
   mixing_beta = 0.4
/
K_POINTS (automatic)
1 1 1     0 0 0

ATOMIC_SPECIES  
 H   1  H.pbe-rrkjus-gipaw-dc.UPF
 O  16  O.pbe-rrkjus-gipaw-dc.UPF

ATOMIC_POSITIONS (bohr)
O   11.79  12.05  11.50
H   13.45  11.22  11.50
H   10.56  10.66  11.50
