# nmr=all pbe1pbe/cc-pvqz scrf=(iefpcm,solvent=water,read)

H2O

0 1
 O                  6.23899900    6.37658500    6.08553800
 H                  7.11743300    5.93736800    6.08553800
 H                  5.58811100    5.64102900    6.08553800

g03defaults norep nodis nocav

