
     Program PWSCF v.7.6 starts on 24Sep2026 at 15:52:50 

     This program is part of the open-source Quantum ESPRESSO suite
     for quantum simulation of materials; please cite
         "P. Giannozzi et al., J. Phys.:Condens. Matter 21 395502 (2009);
         "P. Giannozzi et al., J. Phys.:Condens. Matter 29 465901 (2017);
         "P. Giannozzi et al., J. Chem. Phys. 152 154105 (2020);
          URL http://www.quantum-espresso.org", 
     in publications or presentations arising from this work. More details at
     http://www.quantum-espresso.org/quote

     Parallel version (MPI), running on    16 processors

     MPI processes distributed on     1 nodes
     9858 MiB available memory on the printing compute node when the environment starts
 
     Waiting for input...
     Reading input from standard input

     Current dimensions of program PWSCF are:
     Max number of different atomic species (ntypx) = 10
     Max number of k-points (npk) =  40000
     Max angular momentum in pseudopotentials (lmaxx) =  4
     Message from routine setup:
     using ibrav=0 with symmetry is DISCOURAGED, use correct ibrav instead
 
     R & G space division:  proc/nbgrp/npool/nimage =      16
     Subspace diagonalization in iterative solution of the eigenvalue problem:
     a serial algorithm will be used

 
     Parallelization info
     --------------------
     sticks:   dense  smooth     PW     G-vecs:    dense   smooth      PW
     Min         118     118     33                 4602     4602     685
     Max         119     119     34                 4607     4607     688
     Sum        1903    1903    535                73661    73661   10993
 
     Using Slab Decomposition
 


     bravais-lattice index     =            0
     lattice parameter (alat)  =       4.6415  a.u.
     unit-cell volume          =     762.0804 (a.u.)^3
     number of atoms/cell      =            9
     number of atomic types    =            2
     number of electrons       =        48.00
     number of Kohn-Sham states=           24
     kinetic-energy cutoff     =      80.0000  Ry
     charge density cutoff     =     320.0000  Ry
     scf convergence threshold =      1.0E-10
     mixing beta               =       0.7000
     number of iterations used =            8  plain     mixing
     Exchange-correlation=  SLA  PW   PBX  PBC
                           (   1   4   3   4   0   0   0)

     celldm(1)=   4.641538  celldm(2)=   0.000000  celldm(3)=   0.000000
     celldm(4)=   0.000000  celldm(5)=   0.000000  celldm(6)=   0.000000

     crystal axes: (cart. coord. in units of alat)
               a(1) = (   1.000000  -1.732058   0.000000 )  
               a(2) = (   1.000000   1.732058   0.000000 )  
               a(3) = (   0.000000   0.000000   2.200000 )  

     reciprocal axes: (cart. coord. in units 2 pi/alat)
               b(1) = (  0.500000 -0.288674  0.000000 )  
               b(2) = (  0.500000  0.288674  0.000000 )  
               b(3) = (  0.000000  0.000000  0.454545 )  


     PseudoPot. # 1 for Si read from file:
     ./pseudo/Si.pbe-tm-gipaw.UPF
     MD5 check sum: 744ed8b2dc623e0d56f5dfff7afbe95f
     Pseudo is Norm-conserving, Zval =  4.0
     Generated by new atomic code, or converted to UPF format
     Using radial grid of 1141 points,  2 beta functions with: 
                l(1) =   0
                l(2) =   1

     PseudoPot. # 2 for O  read from file:
     ./pseudo/O.pbe-tm-gipaw.UPF
     MD5 check sum: 12b6f10dd62b8d732352127d12073df4
     Pseudo is Norm-conserving, Zval =  6.0
     Generated by new atomic code, or converted to UPF format
     Using radial grid of 1095 points,  1 beta functions with: 
                l(1) =   0

     atomic species   valence    mass     pseudopotential
     Si                4.00    28.08600     Si( 1.00)
     O                 6.00    15.99900     O ( 1.00)

      2 Sym. Ops. (no inversion) found


                                    s                        frac. trans.

      isym =  1     identity                                     

 cryst.   s( 1) = (     1          0          0      )
                  (     0          1          0      )
                  (     0          0          1      )

 cart.    s( 1) = (  1.0000000  0.0000000  0.0000000 )
                  (  0.0000000  1.0000000  0.0000000 )
                  (  0.0000000  0.0000000  1.0000000 )


      isym =  2     180 deg rotation - cart. axis [1,0,0]        

 cryst.   s( 2) = (     0          1          0      )
                  (     1          0          0      )
                  (     0          0         -1      )

 cart.    s( 2) = (  1.0000000  0.0000000  0.0000000 )
                  (  0.0000000 -1.0000000  0.0000000 )
                  (  0.0000000  0.0000000 -1.0000000 )


   Cartesian axes

     site n.     atom                  positions (alat units)
         1        Si     tau(   1) = (   0.4701000  -0.8142405   0.7333333  )
         2        Si     tau(   2) = (   0.4701000   0.8142405   1.4666667  )
         3        Si     tau(   3) = (  -0.9402000   0.0000000   0.0000000  )
         4        O      tau(   4) = (   0.6813000  -0.2537465   0.4716800  )
         5        O      tau(   5) = (  -0.1209000   0.7168988   1.2050133  )
         6        O      tau(   6) = (  -0.5604000  -0.4631523   1.9383467  )
         7        O      tau(   7) = (   0.6813000   0.2537465  -0.4716800  )
         8        O      tau(   8) = (  -0.1209000  -0.7168988   0.9949867  )
         9        O      tau(   9) = (  -0.5604000   0.4631523   0.2616533  )

   Crystallographic axes

     site n.     atom                  positions (cryst. coord.)
         1        Si     tau(   1) = (  0.4701000  0.0000000  0.3333333  )
         2        Si     tau(   2) = (  0.0000000  0.4701000  0.6666667  )
         3        Si     tau(   3) = ( -0.4701000 -0.4701000  0.0000000  )
         4        O      tau(   4) = (  0.4139000  0.2674000  0.2144000  )
         5        O      tau(   5) = ( -0.2674000  0.1465000  0.5477333  )
         6        O      tau(   6) = ( -0.1465000 -0.4139000  0.8810667  )
         7        O      tau(   7) = (  0.2674000  0.4139000 -0.2144000  )
         8        O      tau(   8) = (  0.1465000 -0.2674000  0.4522667  )
         9        O      tau(   9) = ( -0.4139000 -0.1465000  0.1189333  )

     number of k points=    20
                       cart. coord. in units 2pi/alat
        k(    1) = (   0.1250000   0.0000000   0.0568182), wk =   0.1250000
        k(    2) = (   0.1250000   0.0000000   0.1704545), wk =   0.1250000
        k(    3) = (   0.2500000   0.0721685   0.0568182), wk =   0.1250000
        k(    4) = (   0.2500000   0.0721685   0.1704545), wk =   0.1250000
        k(    5) = (  -0.1250000  -0.1443370   0.0568182), wk =   0.1250000
        k(    6) = (  -0.1250000  -0.1443370   0.1704545), wk =   0.1250000
        k(    7) = (   0.0000000  -0.0721685   0.0568182), wk =   0.0625000
        k(    8) = (   0.0000000  -0.0721685   0.1704545), wk =   0.0625000
        k(    9) = (   0.3750000   0.0000000   0.0568182), wk =   0.1250000
        k(   10) = (   0.3750000   0.0000000   0.1704545), wk =   0.1250000
        k(   11) = (   0.0000000  -0.2165054   0.0568182), wk =   0.0625000
        k(   12) = (   0.0000000  -0.2165054   0.1704545), wk =   0.0625000
        k(   13) = (  -0.2500000   0.0721685  -0.0568182), wk =   0.1250000
        k(   14) = (  -0.2500000   0.0721685  -0.1704545), wk =   0.1250000
        k(   15) = (   0.1250000  -0.1443370  -0.0568182), wk =   0.1250000
        k(   16) = (   0.1250000  -0.1443370  -0.1704545), wk =   0.1250000
        k(   17) = (   0.0000000  -0.0721685  -0.0568182), wk =   0.0625000
        k(   18) = (   0.0000000  -0.0721685  -0.1704545), wk =   0.0625000
        k(   19) = (   0.0000000  -0.2165054  -0.0568182), wk =   0.0625000
        k(   20) = (   0.0000000  -0.2165054  -0.1704545), wk =   0.0625000

                       cryst. coord.
        k(    1) = (   0.1250000   0.1250000   0.1250000), wk =   0.1250000
        k(    2) = (   0.1250000   0.1250000   0.3750000), wk =   0.1250000
        k(    3) = (   0.1250000   0.3750000   0.1250000), wk =   0.1250000
        k(    4) = (   0.1250000   0.3750000   0.3750000), wk =   0.1250000
        k(    5) = (   0.1250000  -0.3750000   0.1250000), wk =   0.1250000
        k(    6) = (   0.1250000  -0.3750000   0.3750000), wk =   0.1250000
        k(    7) = (   0.1250000  -0.1250000   0.1250000), wk =   0.0625000
        k(    8) = (   0.1250000  -0.1250000   0.3750000), wk =   0.0625000
        k(    9) = (   0.3750000   0.3750000   0.1250000), wk =   0.1250000
        k(   10) = (   0.3750000   0.3750000   0.3750000), wk =   0.1250000
        k(   11) = (   0.3750000  -0.3750000   0.1250000), wk =   0.0625000
        k(   12) = (   0.3750000  -0.3750000   0.3750000), wk =   0.0625000
        k(   13) = (  -0.3750000  -0.1250000  -0.1250000), wk =   0.1250000
        k(   14) = (  -0.3750000  -0.1250000  -0.3750000), wk =   0.1250000
        k(   15) = (   0.3750000  -0.1250000  -0.1250000), wk =   0.1250000
        k(   16) = (   0.3750000  -0.1250000  -0.3750000), wk =   0.1250000
        k(   17) = (   0.1250000  -0.1250000  -0.1250000), wk =   0.0625000
        k(   18) = (   0.1250000  -0.1250000  -0.3750000), wk =   0.0625000
        k(   19) = (   0.3750000  -0.3750000  -0.1250000), wk =   0.0625000
        k(   20) = (   0.3750000  -0.3750000  -0.3750000), wk =   0.0625000

     Dense  grid:    73661 G-vectors     FFT dimensions: (  54,  54,  60)

     Dynamical RAM for                 wfc:       0.21 MB

     Dynamical RAM for     wfc (w. buffer):       4.42 MB

     Dynamical RAM for           str. fact:       0.14 MB

     Dynamical RAM for           local pot:       0.00 MB

     Dynamical RAM for          nlocal pot:       0.16 MB

     Dynamical RAM for                qrad:       0.25 MB

     Dynamical RAM for          rho,v,vnew:       0.48 MB

     Dynamical RAM for               rhoin:       0.16 MB

     Dynamical RAM for            rho*nmix:       1.12 MB

     Dynamical RAM for           G-vectors:       0.30 MB

     Dynamical RAM for          h,s,v(r/c):       0.11 MB

     Dynamical RAM for          <psi|beta>:       0.01 MB

     Dynamical RAM for                 psi:       0.42 MB

     Dynamical RAM for                hpsi:       0.42 MB

     Dynamical RAM for      wfcinit/wfcrot:       0.43 MB

     Estimated static dynamical RAM per process >       6.56 MB

     Estimated max dynamical RAM per process >       8.64 MB

     Estimated total dynamical RAM >     138.19 MB

     Initial potential from superposition of free atoms

     starting charge      40.4147, renormalised to      48.0000
     Starting wfcs are   51 randomized atomic wfcs

     total cpu time spent up to now is        1.5 secs

     Self-consistent Calculation

     iteration #  1     ecut=    80.00 Ry     beta= 0.70
     Davidson diagonalization with overlap

---- Real-time Memory Report at c_bands before calling an iterative solver
            63 MiB given to the printing process from OS
             0 MiB allocation reported by mallinfo(arena+hblkhd)
          9547 MiB available memory on the node where the printing process lives
------------------
     ethr =  1.00E-04,  avg # of iterations =  5.0

     total cpu time spent up to now is        2.3 secs

     total energy              =    -216.53558667 Ry
     estimated scf accuracy    <       0.39570081 Ry

     iteration #  2     ecut=    80.00 Ry     beta= 0.70
     Davidson diagonalization with overlap

---- Real-time Memory Report at c_bands before calling an iterative solver
            64 MiB given to the printing process from OS
             0 MiB allocation reported by mallinfo(arena+hblkhd)
          9529 MiB available memory on the node where the printing process lives
------------------
     ethr =  8.24E-04,  avg # of iterations =  2.0

     total cpu time spent up to now is        2.7 secs

     total energy              =    -216.58314796 Ry
     estimated scf accuracy    <       0.05899675 Ry

     iteration #  3     ecut=    80.00 Ry     beta= 0.70
     Davidson diagonalization with overlap

---- Real-time Memory Report at c_bands before calling an iterative solver
            65 MiB given to the printing process from OS
             0 MiB allocation reported by mallinfo(arena+hblkhd)
          9526 MiB available memory on the node where the printing process lives
------------------
     ethr =  1.23E-04,  avg # of iterations =  2.0

     total cpu time spent up to now is        3.2 secs

     total energy              =    -216.59499400 Ry
     estimated scf accuracy    <       0.00672913 Ry

     iteration #  4     ecut=    80.00 Ry     beta= 0.70
     Davidson diagonalization with overlap

---- Real-time Memory Report at c_bands before calling an iterative solver
            65 MiB given to the printing process from OS
             0 MiB allocation reported by mallinfo(arena+hblkhd)
          9522 MiB available memory on the node where the printing process lives
------------------
     ethr =  1.40E-05,  avg # of iterations =  2.0

     total cpu time spent up to now is        3.6 secs

     total energy              =    -216.59570514 Ry
     estimated scf accuracy    <       0.00011145 Ry

     iteration #  5     ecut=    80.00 Ry     beta= 0.70
     Davidson diagonalization with overlap

---- Real-time Memory Report at c_bands before calling an iterative solver
            65 MiB given to the printing process from OS
             0 MiB allocation reported by mallinfo(arena+hblkhd)
          9518 MiB available memory on the node where the printing process lives
------------------
     ethr =  2.32E-07,  avg # of iterations =  3.0

     total cpu time spent up to now is        4.1 secs

     total energy              =    -216.59577815 Ry
     estimated scf accuracy    <       0.00006360 Ry

     iteration #  6     ecut=    80.00 Ry     beta= 0.70
     Davidson diagonalization with overlap

---- Real-time Memory Report at c_bands before calling an iterative solver
            65 MiB given to the printing process from OS
             0 MiB allocation reported by mallinfo(arena+hblkhd)
          9517 MiB available memory on the node where the printing process lives
------------------
     ethr =  1.33E-07,  avg # of iterations =  2.0

     total cpu time spent up to now is        4.6 secs

     total energy              =    -216.59579254 Ry
     estimated scf accuracy    <       0.00000077 Ry

     iteration #  7     ecut=    80.00 Ry     beta= 0.70
     Davidson diagonalization with overlap

---- Real-time Memory Report at c_bands before calling an iterative solver
            65 MiB given to the printing process from OS
             0 MiB allocation reported by mallinfo(arena+hblkhd)
          9515 MiB available memory on the node where the printing process lives
------------------
     ethr =  1.61E-09,  avg # of iterations =  2.0

     total cpu time spent up to now is        5.0 secs

     total energy              =    -216.59579263 Ry
     estimated scf accuracy    <       0.00000007 Ry

     iteration #  8     ecut=    80.00 Ry     beta= 0.70
     Davidson diagonalization with overlap

---- Real-time Memory Report at c_bands before calling an iterative solver
            66 MiB given to the printing process from OS
             0 MiB allocation reported by mallinfo(arena+hblkhd)
          9512 MiB available memory on the node where the printing process lives
------------------
     ethr =  1.45E-10,  avg # of iterations =  2.0

     total cpu time spent up to now is        5.5 secs

     total energy              =    -216.59579265 Ry
     estimated scf accuracy    <          2.0E-09 Ry

     iteration #  9     ecut=    80.00 Ry     beta= 0.70
     Davidson diagonalization with overlap

---- Real-time Memory Report at c_bands before calling an iterative solver
            66 MiB given to the printing process from OS
             0 MiB allocation reported by mallinfo(arena+hblkhd)
          9509 MiB available memory on the node where the printing process lives
------------------
     ethr =  4.12E-12,  avg # of iterations =  2.0

     total cpu time spent up to now is        5.9 secs

     total energy              =    -216.59579265 Ry
     estimated scf accuracy    <          1.7E-09 Ry

     iteration # 10     ecut=    80.00 Ry     beta= 0.70
     Davidson diagonalization with overlap

---- Real-time Memory Report at c_bands before calling an iterative solver
            66 MiB given to the printing process from OS
             0 MiB allocation reported by mallinfo(arena+hblkhd)
          9507 MiB available memory on the node where the printing process lives
------------------
     ethr =  3.63E-12,  avg # of iterations =  2.0

     total cpu time spent up to now is        6.4 secs

     total energy              =    -216.59579265 Ry
     estimated scf accuracy    <          2.3E-10 Ry

     iteration # 11     ecut=    80.00 Ry     beta= 0.70
     Davidson diagonalization with overlap

---- Real-time Memory Report at c_bands before calling an iterative solver
            66 MiB given to the printing process from OS
             0 MiB allocation reported by mallinfo(arena+hblkhd)
          9507 MiB available memory on the node where the printing process lives
------------------
     ethr =  4.83E-13,  avg # of iterations =  2.0

     total cpu time spent up to now is        6.9 secs

     End of self-consistent calculation

          k = 0.1250 0.0000 0.0568 (  9223 PWs)   bands (ev):

   -16.5282 -15.4457 -14.9768 -14.4970 -14.4587 -14.4319  -5.9056  -5.0558
    -3.1048  -2.8364  -2.6435  -2.4178  -0.5197  -0.2016   0.0065   0.3489
     0.6361   1.0626   1.1079   1.3859   1.6935   1.8021   2.2549   2.5039

     occupation numbers 
     1.0000   1.0000   1.0000   1.0000   1.0000   1.0000   1.0000   1.0000
     1.0000   1.0000   1.0000   1.0000   1.0000   1.0000   1.0000   1.0000
     1.0000   1.0000   1.0000   1.0000   1.0000   1.0000   1.0000   1.0000

          k = 0.1250 0.0000 0.1705 (  9197 PWs)   bands (ev):

   -16.3134 -15.9075 -14.7219 -14.4935 -14.4617 -14.4284  -6.3285  -4.2412
    -3.5528  -2.8647  -2.7273  -2.2108  -0.4760  -0.1555   0.0526   0.3179
     0.5723   0.9952   1.0933   1.2555   1.5474   2.0397   2.3109   2.4772

     occupation numbers 
     1.0000   1.0000   1.0000   1.0000   1.0000   1.0000   1.0000   1.0000
     1.0000   1.0000   1.0000   1.0000   1.0000   1.0000   1.0000   1.0000
     1.0000   1.0000   1.0000   1.0000   1.0000   1.0000   1.0000   1.0000

          k = 0.2500 0.0722 0.0568 (  9216 PWs)   bands (ev):

   -16.1875 -15.6953 -15.0981 -14.5234 -14.4931 -14.4544  -5.7643  -4.6888
    -3.5130  -2.8243  -2.6631  -2.0922  -0.5232  -0.2757  -0.0718   0.3623
     0.5661   0.8465   0.9865   1.3878   1.6021   1.8682   2.2952   2.5244

     occupation numbers 
     1.0000   1.0000   1.0000   1.0000   1.0000   1.0000   1.0000   1.0000
     1.0000   1.0000   1.0000   1.0000   1.0000   1.0000   1.0000   1.0000
     1.0000   1.0000   1.0000   1.0000   1.0000   1.0000   1.0000   1.0000

          k = 0.2500 0.0722 0.1705 (  9213 PWs)   bands (ev):

   -16.1300 -15.6949 -15.1675 -14.5429 -14.4842 -14.4536  -5.6414  -4.6349
    -3.7955  -2.7429  -2.4149  -2.3787  -0.6185  -0.4510   0.0832   0.4174
     0.6341   0.8952   1.3157   1.4454   1.6803   1.8893   2.0594   2.3472

     occupation numbers 
     1.0000   1.0000   1.0000   1.0000   1.0000   1.0000   1.0000   1.0000
     1.0000   1.0000   1.0000   1.0000   1.0000   1.0000   1.0000   1.0000
     1.0000   1.0000   1.0000   1.0000   1.0000   1.0000   1.0000   1.0000

          k =-0.1250-0.1443 0.0568 (  9215 PWs)   bands (ev):

   -16.3672 -15.5337 -15.0707 -14.5121 -14.4754 -14.4463  -5.8052  -4.8954
    -3.3107  -2.8427  -2.6384  -2.2293  -0.5280  -0.1808  -0.0197   0.2332
     0.5573   0.9564   1.1597   1.3678   1.5965   1.8521   2.2435   2.5443

     occupation numbers 
     1.0000   1.0000   1.0000   1.0000   1.0000   1.0000   1.0000   1.0000
     1.0000   1.0000   1.0000   1.0000   1.0000   1.0000   1.0000   1.0000
     1.0000   1.0000   1.0000   1.0000   1.0000   1.0000   1.0000   1.0000

          k =-0.1250-0.1443 0.1705 (  9207 PWs)   bands (ev):

   -16.2102 -15.8117 -14.9564 -14.5171 -14.4706 -14.4471  -5.9796  -4.4205
    -3.7044  -2.7934  -2.5479  -2.2815  -0.5659  -0.3508   0.1255   0.2682
     0.5717   1.0438   1.2056   1.4184   1.6714   1.8200   2.1717   2.4453

     occupation numbers 
     1.0000   1.0000   1.0000   1.0000   1.0000   1.0000   1.0000   1.0000
     1.0000   1.0000   1.0000   1.0000   1.0000   1.0000   1.0000   1.0000
     1.0000   1.0000   1.0000   1.0000   1.0000   1.0000   1.0000   1.0000

          k = 0.0000-0.0722 0.0568 (  9206 PWs)   bands (ev):

   -16.6171 -15.4203 -14.9048 -14.4797 -14.4453 -14.4224  -6.0062  -5.1076
    -2.9879  -2.8447  -2.6916  -2.4794  -0.4690  -0.2054  -0.0475   0.3020
     0.8675   1.0657   1.1150   1.3775   1.6632   1.9022   2.2505   2.4556

     occupation numbers 
     1.0000   1.0000   1.0000   1.0000   1.0000   1.0000   1.0000   1.0000
     1.0000   1.0000   1.0000   1.0000   1.0000   1.0000   1.0000   1.0000
     1.0000   1.0000   1.0000   1.0000   1.0000   1.0000   1.0000   1.0000

          k = 0.0000-0.0722 0.1705 (  9184 PWs)   bands (ev):

   -16.3817 -15.9525 -14.5823 -14.4720 -14.4629 -14.4123  -6.5367  -4.1464
    -3.4171  -2.9442  -2.8644  -2.1601  -0.3712  -0.0309  -0.0103   0.4077
     0.6124   0.9143   0.9698   1.1507   1.4715   2.1645   2.4132   2.4846

     occupation numbers 
     1.0000   1.0000   1.0000   1.0000   1.0000   1.0000   1.0000   1.0000
     1.0000   1.0000   1.0000   1.0000   1.0000   1.0000   1.0000   1.0000
     1.0000   1.0000   1.0000   1.0000   1.0000   1.0000   1.0000   1.0000

          k = 0.3750 0.0000 0.0568 (  9207 PWs)   bands (ev):

   -16.0615 -15.8041 -15.1285 -14.5215 -14.4977 -14.4578  -5.7748  -4.3966
    -3.8598  -2.7960  -2.6263  -2.0202  -0.4603  -0.2831  -0.1991   0.4865
     0.5748   0.7288   1.0336   1.2938   1.5043   2.0518   2.2054   2.5426

     occupation numbers 
     1.0000   1.0000   1.0000   1.0000   1.0000   1.0000   1.0000   1.0000
     1.0000   1.0000   1.0000   1.0000   1.0000   1.0000   1.0000   1.0000
     1.0000   1.0000   1.0000   1.0000   1.0000   1.0000   1.0000   1.0000

          k = 0.3750 0.0000 0.1705 (  9202 PWs)   bands (ev):

   -16.0944 -15.6136 -15.2828 -14.5459 -14.4981 -14.4634  -5.4306  -4.7385
    -3.9219  -2.6987  -2.4240  -2.3645  -0.6429  -0.3279  -0.0933   0.5477
     0.6445   0.7520   1.4532   1.4882   1.6877   1.9257   1.9862   2.2401

     occupation numbers 
     1.0000   1.0000   1.0000   1.0000   1.0000   1.0000   1.0000   1.0000
     1.0000   1.0000   1.0000   1.0000   1.0000   1.0000   1.0000   1.0000
     1.0000   1.0000   1.0000   1.0000   1.0000   1.0000   1.0000   1.0000

          k = 0.0000-0.2165 0.0568 (  9221 PWs)   bands (ev):

   -16.3013 -15.6022 -15.0631 -14.5209 -14.4886 -14.4486  -5.7743  -4.8571
    -3.3030  -2.8231  -2.7144  -2.1843  -0.5825  -0.2093   0.0272   0.3123
     0.5714   0.8978   0.9682   1.4911   1.6439   1.7454   2.3447   2.4919

     occupation numbers 
     1.0000   1.0000   1.0000   1.0000   1.0000   1.0000   1.0000   1.0000
     1.0000   1.0000   1.0000   1.0000   1.0000   1.0000   1.0000   1.0000
     1.0000   1.0000   1.0000   1.0000   1.0000   1.0000   1.0000   1.0000

          k = 0.0000-0.2165 0.1705 (  9202 PWs)   bands (ev):

   -16.1753 -15.7769 -15.0306 -14.5351 -14.4767 -14.4432  -5.8558  -4.5147
    -3.7009  -2.7845  -2.4676  -2.3548  -0.6048  -0.4233   0.1626   0.3449
     0.6052   1.0045   1.1750   1.4100   1.6527   1.9096   2.1501   2.3876

     occupation numbers 
     1.0000   1.0000   1.0000   1.0000   1.0000   1.0000   1.0000   1.0000
     1.0000   1.0000   1.0000   1.0000   1.0000   1.0000   1.0000   1.0000
     1.0000   1.0000   1.0000   1.0000   1.0000   1.0000   1.0000   1.0000

          k =-0.2500 0.0722-0.0568 (  9216 PWs)   bands (ev):

   -16.1896 -15.6878 -15.1080 -14.5207 -14.4895 -14.4561  -5.7653  -4.6894
    -3.5140  -2.8345  -2.6533  -2.0810  -0.4757  -0.3029  -0.0997   0.2902
     0.6075   0.8217   1.0844   1.3524   1.5683   1.9252   2.2397   2.5488

     occupation numbers 
     1.0000   1.0000   1.0000   1.0000   1.0000   1.0000   1.0000   1.0000
     1.0000   1.0000   1.0000   1.0000   1.0000   1.0000   1.0000   1.0000
     1.0000   1.0000   1.0000   1.0000   1.0000   1.0000   1.0000   1.0000

          k =-0.2500 0.0722-0.1705 (  9213 PWs)   bands (ev):

   -16.1330 -15.6851 -15.1786 -14.5391 -14.4827 -14.4543  -5.6424  -4.6369
    -3.7925  -2.7536  -2.4312  -2.3442  -0.6057  -0.4623   0.0748   0.4110
     0.5825   0.9551   1.3229   1.5029   1.6338   1.8623   2.0213   2.3918

     occupation numbers 
     1.0000   1.0000   1.0000   1.0000   1.0000   1.0000   1.0000   1.0000
     1.0000   1.0000   1.0000   1.0000   1.0000   1.0000   1.0000   1.0000
     1.0000   1.0000   1.0000   1.0000   1.0000   1.0000   1.0000   1.0000

          k = 0.1250-0.1443-0.0568 (  9215 PWs)   bands (ev):

   -16.3659 -15.5436 -15.0552 -14.5151 -14.4826 -14.4431  -5.8035  -4.8953
    -3.3080  -2.8267  -2.6508  -2.2475  -0.5663  -0.1839   0.0197   0.3186
     0.5463   0.9436   1.0566   1.4128   1.6366   1.7945   2.3042   2.5100

     occupation numbers 
     1.0000   1.0000   1.0000   1.0000   1.0000   1.0000   1.0000   1.0000
     1.0000   1.0000   1.0000   1.0000   1.0000   1.0000   1.0000   1.0000
     1.0000   1.0000   1.0000   1.0000   1.0000   1.0000   1.0000   1.0000

          k = 0.1250-0.1443-0.1705 (  9207 PWs)   bands (ev):

   -16.2070 -15.8194 -14.9444 -14.5222 -14.4762 -14.4442  -5.9783  -4.4176
    -3.7081  -2.7806  -2.5433  -2.3095  -0.5813  -0.3391   0.1210   0.3020
     0.6187   0.9783   1.1939   1.3966   1.6483   1.8960   2.2350   2.3657

     occupation numbers 
     1.0000   1.0000   1.0000   1.0000   1.0000   1.0000   1.0000   1.0000
     1.0000   1.0000   1.0000   1.0000   1.0000   1.0000   1.0000   1.0000
     1.0000   1.0000   1.0000   1.0000   1.0000   1.0000   1.0000   1.0000

          k = 0.0000-0.0722-0.0568 (  9206 PWs)   bands (ev):

   -16.6172 -15.4181 -14.9093 -14.4798 -14.4400 -14.4252  -6.0067  -5.1074
    -2.9917  -2.8414  -2.7020  -2.4656  -0.4495  -0.2272  -0.0413   0.2902
     0.8318   1.1059   1.1251   1.3645   1.6877   1.8795   2.2410   2.4675

     occupation numbers 
     1.0000   1.0000   1.0000   1.0000   1.0000   1.0000   1.0000   1.0000
     1.0000   1.0000   1.0000   1.0000   1.0000   1.0000   1.0000   1.0000
     1.0000   1.0000   1.0000   1.0000   1.0000   1.0000   1.0000   1.0000

          k = 0.0000-0.0722-0.1705 (  9184 PWs)   bands (ev):

   -16.3822 -15.9514 -14.5892 -14.4745 -14.4527 -14.4136  -6.5370  -4.1469
    -3.4173  -2.9370  -2.8744  -2.1536  -0.3670  -0.0228  -0.0112   0.3850
     0.5897   0.9130   1.0253   1.1298   1.4726   2.1644   2.3661   2.5290

     occupation numbers 
     1.0000   1.0000   1.0000   1.0000   1.0000   1.0000   1.0000   1.0000
     1.0000   1.0000   1.0000   1.0000   1.0000   1.0000   1.0000   1.0000
     1.0000   1.0000   1.0000   1.0000   1.0000   1.0000   1.0000   1.0000

          k = 0.0000-0.2165-0.0568 (  9221 PWs)   bands (ev):

   -16.3042 -15.5855 -15.0884 -14.5161 -14.4738 -14.4566  -5.7770  -4.8576
    -3.3062  -2.8668  -2.6722  -2.1583  -0.5165  -0.1946  -0.0494   0.1513
     0.6174   0.9107   1.1095   1.4461   1.5483   1.8761   2.2274   2.5570

     occupation numbers 
     1.0000   1.0000   1.0000   1.0000   1.0000   1.0000   1.0000   1.0000
     1.0000   1.0000   1.0000   1.0000   1.0000   1.0000   1.0000   1.0000
     1.0000   1.0000   1.0000   1.0000   1.0000   1.0000   1.0000   1.0000

          k = 0.0000-0.2165-0.1705 (  9202 PWs)   bands (ev):

   -16.1815 -15.7608 -15.0518 -14.5276 -14.4692 -14.4466  -5.8581  -4.5193
    -3.6943  -2.8087  -2.4803  -2.2999  -0.5727  -0.4526   0.1767   0.2784
     0.5390   1.0924   1.2373   1.4504   1.6471   1.7874   2.0927   2.4803

     occupation numbers 
     1.0000   1.0000   1.0000   1.0000   1.0000   1.0000   1.0000   1.0000
     1.0000   1.0000   1.0000   1.0000   1.0000   1.0000   1.0000   1.0000
     1.0000   1.0000   1.0000   1.0000   1.0000   1.0000   1.0000   1.0000

     highest occupied level (ev):     2.5570

!    total energy              =    -216.59579265 Ry
     estimated scf accuracy    <          3.4E-12 Ry

     The total energy is the sum of the following terms:
     one-electron contribution =    -104.85195749 Ry
     hartree contribution      =      78.13083540 Ry
     xc contribution           =     -50.91270615 Ry
     ewald contribution        =    -138.96196441 Ry

     convergence has been achieved in  11 iterations

     Forces acting on atoms (cartesian axes, Ry/au):

     atom    1 type  1   force =     0.00061234   -0.00105649   -0.00000439
     atom    2 type  1   force =     0.00061234    0.00105649    0.00000439
     atom    3 type  1   force =    -0.00121937    0.00000000    0.00000000
     atom    4 type  2   force =    -0.00520824    0.01174802    0.00464687
     atom    5 type  2   force =    -0.00757471   -0.01038581    0.00464514
     atom    6 type  2   force =     0.01278029   -0.00136720    0.00464448
     atom    7 type  2   force =    -0.00520824   -0.01174802   -0.00464687
     atom    8 type  2   force =    -0.00757471    0.01038581   -0.00464514
     atom    9 type  2   force =     0.01278029    0.00136720   -0.00464448
     The non-local contrib.  to forces
     atom    1 type  1   force =    -0.00275726    0.00478856   -0.00001034
     atom    2 type  1   force =    -0.00275726   -0.00478856    0.00001034
     atom    3 type  1   force =     0.00553178    0.00000000    0.00000000
     atom    4 type  2   force =     0.40191637   -0.74304809   -0.48783947
     atom    5 type  2   force =     0.44253786    0.71959833   -0.48783976
     atom    6 type  2   force =    -0.84444746    0.02345337   -0.48783785
     atom    7 type  2   force =     0.40191637    0.74304809    0.48783947
     atom    8 type  2   force =     0.44253786   -0.71959833    0.48783976
     atom    9 type  2   force =    -0.84444746   -0.02345337    0.48783785
     The ionic contribution  to forces
     atom    1 type  1   force =    -0.02624446    0.04549851   -0.00003980
     atom    2 type  1   force =    -0.02624446   -0.04549851    0.00003980
     atom    3 type  1   force =     0.05254218    0.00000000   -0.00000000
     atom    4 type  2   force =    -2.01280941    2.87798355    1.63888123
     atom    5 type  2   force =    -1.48603190   -3.18215155    1.63886102
     atom    6 type  2   force =     3.49881469    0.30413529    1.63885390
     atom    7 type  2   force =    -2.01280941   -2.87798355   -1.63888123
     atom    8 type  2   force =    -1.48603190    3.18215155   -1.63886102
     atom    9 type  2   force =     3.49881469   -0.30413529   -1.63885390
     The local contribution  to forces
     atom    1 type  1   force =     0.02961419   -0.05134345    0.00004553
     atom    2 type  1   force =     0.02961419    0.05134345   -0.00004553
     atom    3 type  1   force =    -0.05929356    0.00000000    0.00000000
     atom    4 type  2   force =     1.60568538   -2.12318791   -1.14639542
     atom    5 type  2   force =     1.03591965    2.45216823   -1.14637659
     atom    6 type  2   force =    -2.64158772   -0.32895585   -1.14637190
     atom    7 type  2   force =     1.60568538    2.12318791    1.14639542
     atom    8 type  2   force =     1.03591965   -2.45216823    1.14637659
     atom    9 type  2   force =    -2.64158772    0.32895585    1.14637190
     The core correction contribution to forces
     atom    1 type  1   force =     0.00000000    0.00000000    0.00000000
     atom    2 type  1   force =     0.00000000    0.00000000    0.00000000
     atom    3 type  1   force =     0.00000000    0.00000000    0.00000000
     atom    4 type  2   force =     0.00000000    0.00000000    0.00000000
     atom    5 type  2   force =     0.00000000    0.00000000    0.00000000
     atom    6 type  2   force =     0.00000000    0.00000000    0.00000000
     atom    7 type  2   force =     0.00000000    0.00000000    0.00000000
     atom    8 type  2   force =     0.00000000    0.00000000    0.00000000
     atom    9 type  2   force =     0.00000000    0.00000000    0.00000000
     The Hubbard contrib.    to forces
     atom    1 type  1   force =     0.00000000    0.00000000    0.00000000
     atom    2 type  1   force =     0.00000000    0.00000000    0.00000000
     atom    3 type  1   force =     0.00000000    0.00000000    0.00000000
     atom    4 type  2   force =     0.00000000    0.00000000    0.00000000
     atom    5 type  2   force =     0.00000000    0.00000000    0.00000000
     atom    6 type  2   force =     0.00000000    0.00000000    0.00000000
     atom    7 type  2   force =     0.00000000    0.00000000    0.00000000
     atom    8 type  2   force =     0.00000000    0.00000000    0.00000000
     atom    9 type  2   force =     0.00000000    0.00000000    0.00000000
     The SCF correction term to forces
     atom    1 type  1   force =    -0.00000012   -0.00000011    0.00000022
     atom    2 type  1   force =    -0.00000012    0.00000011   -0.00000022
     atom    3 type  1   force =     0.00000024   -0.00000000   -0.00000000
     atom    4 type  2   force =    -0.00000055    0.00000048    0.00000053
     atom    5 type  2   force =    -0.00000030   -0.00000081    0.00000048
     atom    6 type  2   force =     0.00000080   -0.00000000    0.00000033
     atom    7 type  2   force =    -0.00000055   -0.00000048   -0.00000053
     atom    8 type  2   force =    -0.00000030    0.00000081   -0.00000048
     atom    9 type  2   force =     0.00000080    0.00000000   -0.00000033

     Total force =     0.033543     Total SCF correction =     0.000002


     Computing stress (Cartesian axis) and pressure

          total   stress  (Ry/bohr**3)                   (kbar)     P=       72.66
   0.00049588   0.00000000   0.00000000           72.95        0.00        0.00
   0.00000000   0.00049578  -0.00000001            0.00       72.93       -0.00
   0.00000000  -0.00000001   0.00049019            0.00       -0.00       72.11

     kinetic stress (kbar)  19227.40      0.00      0.00
                                0.00  19227.37      0.00
                                0.00      0.00  19195.46

     local   stress (kbar) -17214.97     -0.00      0.00
                               -0.00 -17214.92      0.03
                                0.00      0.03 -18450.41

     nonloc. stress (kbar)   5487.30      0.00      0.00
                                0.00   5487.30     -0.00
                                0.00     -0.00   5495.72

     hartree stress (kbar)   4880.88     -0.00     -0.00
                               -0.00   4880.86     -0.01
                               -0.00     -0.01   5319.93

     exc-cor stress (kbar)  -3093.66      0.00     -0.00
                                0.00  -3093.66     -0.00
                               -0.00     -0.00  -3092.63

     corecor stress (kbar)      0.00      0.00      0.00
                                0.00      0.00      0.00
                                0.00      0.00      0.00

     ewald   stress (kbar)  -9214.00     -0.00      0.00
                               -0.00  -9214.01     -0.02
                                0.00     -0.02  -8395.95

     hubbard stress (kbar)      0.00      0.00      0.00
                                0.00      0.00      0.00
                                0.00      0.00      0.00

     DFT-D   stress (kbar)      0.00      0.00      0.00
                                0.00      0.00      0.00
                                0.00      0.00      0.00

     XDM     stress (kbar)      0.00      0.00      0.00
                                0.00      0.00      0.00
                                0.00      0.00      0.00

     dft-nl  stress (kbar)      0.00      0.00      0.00
                                0.00      0.00      0.00
                                0.00      0.00      0.00

     TS-vdW  stress (kbar)      0.00      0.00      0.00
                                0.00      0.00      0.00
                                0.00      0.00      0.00

     MDB     stress (kbar)      0.00      0.00      0.00
                                0.00      0.00      0.00
                                0.00      0.00      0.00

     3D-RISM stress (kbar)      0.00      0.00      0.00
                                0.00      0.00      0.00
                                0.00      0.00      0.00


     Writing all to output data dir /tmp/ceresoli/quartz.save/ :
     XML data file, charge density, pseudopotentials, collected wavefunctions
 
     init_run     :      0.59s CPU      0.76s WALL (       1 calls)
     electrons    :      5.11s CPU      5.38s WALL (       1 calls)
     forces       :      0.02s CPU      0.02s WALL (       1 calls)
     stress       :      0.06s CPU      0.06s WALL (       1 calls)

     Called by init_run:
     wfcinit      :      0.26s CPU      0.28s WALL (       1 calls)
     wfcinit:atom :      0.00s CPU      0.00s WALL (      20 calls)
     wfcinit:wfcr :      0.24s CPU      0.26s WALL (      20 calls)
     potinit      :      0.31s CPU      0.43s WALL (       1 calls)
     hinit0       :      0.01s CPU      0.03s WALL (       1 calls)

     Called by electrons:
     c_bands      :      4.45s CPU      4.62s WALL (      11 calls)
     sum_band     :      0.61s CPU      0.66s WALL (      11 calls)
     v_of_rho     :      0.19s CPU      0.19s WALL (      12 calls)
     v_h          :      0.00s CPU      0.00s WALL (      12 calls)
     v_xc         :      0.18s CPU      0.19s WALL (      12 calls)
     mix_rho      :      0.01s CPU      0.02s WALL (      11 calls)

     Called by c_bands:
     init_us_2    :      0.04s CPU      0.04s WALL (     500 calls)
     cegterg      :      4.37s CPU      4.54s WALL (     220 calls)

     Called by sum_band:
     sum_band:wei :      0.00s CPU      0.00s WALL (      11 calls)
     sum_band:loo :      0.60s CPU      0.64s WALL (      11 calls)
     sum_band:buf :      0.01s CPU      0.01s WALL (     220 calls)
     sum_band:ini :      0.02s CPU      0.02s WALL (     220 calls)

     Called by *egterg:
     cdiaghg      :      0.35s CPU      0.36s WALL (     740 calls)
     cegterg:over :      0.22s CPU      0.22s WALL (     520 calls)
     cegterg:upda :      0.07s CPU      0.08s WALL (     520 calls)
     cegterg:last :      0.13s CPU      0.13s WALL (     510 calls)
     h_psi        :      3.71s CPU      3.86s WALL (     760 calls)
     g_psi        :      0.02s CPU      0.02s WALL (     520 calls)

     Called by h_psi:
     h_psi:calbec :      0.07s CPU      0.07s WALL (     760 calls)
     vloc_psi     :      3.58s CPU      3.72s WALL (     760 calls)
     add_vuspsi   :      0.05s CPU      0.05s WALL (     760 calls)

     General routines
     calbec       :      0.10s CPU      0.10s WALL (    1100 calls)
     fft          :      0.11s CPU      0.13s WALL (     127 calls)
     ffts         :      0.00s CPU      0.00s WALL (      11 calls)
     fftw         :      3.87s CPU      4.05s WALL (   40438 calls)
 
     Parallel routines
 
     PWSCF        :      6.57s CPU      7.19s WALL

 
   This run was terminated on:  15:52:58  24Sep2026            

=------------------------------------------------------------------------------=
   JOB DONE.
=------------------------------------------------------------------------------=
