
     Program PWSCF v.7.6 starts on 24Sep2026 at 15:56:11 

     This program is part of the open-source Quantum ESPRESSO suite
     for quantum simulation of materials; please cite
         "P. Giannozzi et al., J. Phys.:Condens. Matter 21 395502 (2009);
         "P. Giannozzi et al., J. Phys.:Condens. Matter 29 465901 (2017);
         "P. Giannozzi et al., J. Chem. Phys. 152 154105 (2020);
          URL http://www.quantum-espresso.org", 
     in publications or presentations arising from this work. More details at
     http://www.quantum-espresso.org/quote

     Parallel version (MPI), running on    16 processors

     MPI processes distributed on     1 nodes
     9849 MiB available memory on the printing compute node when the environment starts
 
     Waiting for input...
     Reading input from standard input

     Current dimensions of program PWSCF are:
     Max number of different atomic species (ntypx) = 10
     Max number of k-points (npk) =  40000
     Max angular momentum in pseudopotentials (lmaxx) =  4
     Message from routine setup:
     using ibrav=0 with symmetry is DISCOURAGED, use correct ibrav instead
 
     R & G space division:  proc/nbgrp/npool/nimage =      16
     Subspace diagonalization in iterative solution of the eigenvalue problem:
     a serial algorithm will be used

 
     Parallelization info
     --------------------
     sticks:   dense  smooth     PW     G-vecs:    dense   smooth      PW
     Min         205     205     55                 7339     7339    1029
     Max         206     206     56                 7342     7342    1031
     Sum        3289    3289    885               117437   117437   16479
 
     Using Slab Decomposition
 


     bravais-lattice index     =            0
     lattice parameter (alat)  =      10.6977  a.u.
     unit-cell volume          =    1019.0328 (a.u.)^3
     number of atoms/cell      =           16
     number of atomic types    =            4
     number of electrons       =        44.00
     number of Kohn-Sham states=           22
     kinetic-energy cutoff     =      90.0000  Ry
     charge density cutoff     =     360.0000  Ry
     scf convergence threshold =      1.0E-08
     mixing beta               =       0.2000
     number of iterations used =            8  plain     mixing
     energy convergence thresh.=      1.0E-04
     force convergence thresh. =      1.0E-03
     Exchange-correlation=  SLA  PW   PBX  PBC
                           (   1   4   3   4   0   0   0)
     nstep                     =           50


     celldm(1)=  10.697739  celldm(2)=   0.000000  celldm(3)=   0.000000
     celldm(4)=   0.000000  celldm(5)=   0.000000  celldm(6)=   0.000000

     crystal axes: (cart. coord. in units of alat)
               a(1) = (   1.000000   0.000000   0.000000 )  
               a(2) = (   0.000000   1.000000   0.000000 )  
               a(3) = (   0.000000   0.000000   0.832362 )  

     reciprocal axes: (cart. coord. in units 2 pi/alat)
               b(1) = (  1.000000  0.000000  0.000000 )  
               b(2) = (  0.000000  1.000000  0.000000 )  
               b(3) = (  0.000000  0.000000  1.201401 )  


     PseudoPot. # 1 for C  read from file:
     ./pseudo/C.pbe-tm-gipaw.UPF
     MD5 check sum: 6e4a9b9bc4429ee737bc22471ffa2923
     Pseudo is Norm-conserving, Zval =  4.0
     Generated by new atomic code, or converted to UPF format
     Using radial grid of 1073 points,  1 beta functions with: 
                l(1) =   0

     PseudoPot. # 2 for C  read from file:
     ./pseudo/C.pbe-tm-gipaw.UPF
     MD5 check sum: 6e4a9b9bc4429ee737bc22471ffa2923
     Pseudo is Norm-conserving, Zval =  4.0
     Generated by new atomic code, or converted to UPF format
     Using radial grid of 1073 points,  1 beta functions with: 
                l(1) =   0

     PseudoPot. # 3 for N  read from file:
     ./pseudo/N.pbe-tm-gipaw.UPF
     MD5 check sum: df8943e789315a92e2ce8ab49e62f5cb
     Pseudo is Norm-conserving, Zval =  5.0
     Generated by new atomic code, or converted to UPF format
     Using radial grid of 1085 points,  1 beta functions with: 
                l(1) =   0

     PseudoPot. # 4 for H  read from file:
     ./pseudo/H.pbe-tm-gipaw.UPF
     MD5 check sum: 39a9a69d8410949353303b9fcad9eee2
     Pseudo is Norm-conserving, Zval =  1.0
     Generated by new atomic code, or converted to UPF format
     Using radial grid of  929 points,  0 beta functions with: 

     atomic species   valence    mass     pseudopotential
     C                 4.00    12.00000     C ( 1.00)
     O                 4.00    15.99900     C ( 1.00)
     N                 5.00    14.00700     N ( 1.00)
     H                 1.00     2.00000     H ( 1.00)

      8 Sym. Ops. (no inversion) found ( 4 have fractional translation)



   Cartesian axes

     site n.     atom                  positions (alat units)
         1        C      tau(   1) = (   0.0000000   0.5000000   0.2771765  )
         2        C      tau(   2) = (   0.5000000   0.0000000   0.5551853  )
         3        O      tau(   3) = (   0.0000000   0.5000000   0.4967535  )
         4        O      tau(   4) = (   0.5000000   0.0000000   0.3356083  )
         5        N      tau(   5) = (   0.1439000   0.6439000   0.1524887  )
         6        N      tau(   6) = (   0.8561000   0.3561000   0.1524887  )
         7        N      tau(   7) = (   0.6439000   0.8561000   0.6798731  )
         8        N      tau(   8) = (   0.3561000   0.1439000   0.6798731  )
         9        H      tau(   9) = (   0.2522000   0.7522000   0.2363075  )
        10        H      tau(  10) = (   0.7478000   0.2478000   0.2363075  )
        11        H      tau(  11) = (   0.7522000   0.7478000   0.5960543  )
        12        H      tau(  12) = (   0.2478000   0.2522000   0.5960543  )
        13        H      tau(  13) = (   0.1365000   0.6365000   0.8093886  )
        14        H      tau(  14) = (   0.8635000   0.3635000   0.8093886  )
        15        H      tau(  15) = (   0.6365000   0.8635000   0.0229732  )
        16        H      tau(  16) = (   0.3635000   0.1365000   0.0229732  )

     -------------------------------------------------
     Parameters for Dispersion (Grimme-D2) Correction:
     -------------------------------------------------
       atom      VdW radius       C_6     

        C          2.744         60.710
        O          2.536         24.284
        N          2.640         42.670
        H          1.892          4.857

     number of k points=     6
                       cart. coord. in units 2pi/alat
        k(    1) = (   0.0000000   0.0000000   0.0000000), wk =   0.0740741
        k(    2) = (   0.0000000   0.0000000   0.4004669), wk =   0.1481481
        k(    3) = (   0.0000000   0.3333333   0.0000000), wk =   0.2962963
        k(    4) = (   0.0000000   0.3333333   0.4004669), wk =   0.5925926
        k(    5) = (   0.3333333   0.3333333   0.0000000), wk =   0.2962963
        k(    6) = (   0.3333333   0.3333333   0.4004669), wk =   0.5925926

     Dense  grid:   117437 G-vectors     FFT dimensions: (  72,  72,  54)

     Estimated max dynamical RAM per process >       8.80 MB

     Estimated total dynamical RAM >     140.80 MB

     Initial potential from superposition of free atoms

     starting charge      36.7998, renormalised to      44.0000
     Starting wfcs are   40 randomized atomic wfcs

     total cpu time spent up to now is        0.6 secs

     Self-consistent Calculation

     iteration #  1     ecut=    90.00 Ry     beta= 0.20
     Davidson diagonalization with overlap
     ethr =  1.00E-04,  avg # of iterations =  8.7

     total cpu time spent up to now is        1.0 secs

     total energy              =    -134.38274577 Ry
     estimated scf accuracy    <       7.96725633 Ry

     iteration #  2     ecut=    90.00 Ry     beta= 0.20
     Davidson diagonalization with overlap
     ethr =  1.00E-02,  avg # of iterations =  2.0

     total cpu time spent up to now is        1.2 secs

     total energy              =    -133.22882463 Ry
     estimated scf accuracy    <       2.81985910 Ry

     iteration #  3     ecut=    90.00 Ry     beta= 0.20
     Davidson diagonalization with overlap
     ethr =  6.41E-03,  avg # of iterations =  3.5

     total cpu time spent up to now is        1.4 secs

     total energy              =    -133.84618216 Ry
     estimated scf accuracy    <       0.25709982 Ry

     iteration #  4     ecut=    90.00 Ry     beta= 0.20
     Davidson diagonalization with overlap
     ethr =  5.84E-04,  avg # of iterations =  2.7

     total cpu time spent up to now is        1.6 secs

     total energy              =    -133.84497796 Ry
     estimated scf accuracy    <       0.07618065 Ry

     iteration #  5     ecut=    90.00 Ry     beta= 0.20
     Davidson diagonalization with overlap
     ethr =  1.73E-04,  avg # of iterations =  3.2

     total cpu time spent up to now is        1.8 secs

     total energy              =    -133.85414718 Ry
     estimated scf accuracy    <       0.03549663 Ry

     iteration #  6     ecut=    90.00 Ry     beta= 0.20
     Davidson diagonalization with overlap
     ethr =  8.07E-05,  avg # of iterations =  2.8

     total cpu time spent up to now is        2.0 secs

     total energy              =    -133.85105176 Ry
     estimated scf accuracy    <       0.01877456 Ry

     iteration #  7     ecut=    90.00 Ry     beta= 0.20
     Davidson diagonalization with overlap
     ethr =  4.27E-05,  avg # of iterations =  6.8

     total cpu time spent up to now is        2.2 secs

     total energy              =    -133.85694334 Ry
     estimated scf accuracy    <       0.00719493 Ry

     iteration #  8     ecut=    90.00 Ry     beta= 0.20
     Davidson diagonalization with overlap
     ethr =  1.64E-05,  avg # of iterations =  1.2

     total cpu time spent up to now is        2.4 secs

     total energy              =    -133.85499762 Ry
     estimated scf accuracy    <       0.00677539 Ry

     iteration #  9     ecut=    90.00 Ry     beta= 0.20
     Davidson diagonalization with overlap
     ethr =  1.54E-05,  avg # of iterations =  7.7

     total cpu time spent up to now is        2.7 secs

     total energy              =    -133.85802115 Ry
     estimated scf accuracy    <       0.04770048 Ry

     iteration # 10     ecut=    90.00 Ry     beta= 0.20
     Davidson diagonalization with overlap
     ethr =  1.54E-05,  avg # of iterations =  2.5

     total cpu time spent up to now is        2.9 secs

     total energy              =    -133.84946819 Ry
     estimated scf accuracy    <       0.02484380 Ry

     iteration # 11     ecut=    90.00 Ry     beta= 0.20
     Davidson diagonalization with overlap
     ethr =  1.54E-05,  avg # of iterations =  7.0

     total cpu time spent up to now is        3.2 secs

     total energy              =    -133.85643824 Ry
     estimated scf accuracy    <       0.00638771 Ry

     iteration # 12     ecut=    90.00 Ry     beta= 0.20
     Davidson diagonalization with overlap
     ethr =  1.45E-05,  avg # of iterations =  1.0

     total cpu time spent up to now is        3.4 secs

     total energy              =    -133.85513973 Ry
     estimated scf accuracy    <       0.00392347 Ry

     iteration # 13     ecut=    90.00 Ry     beta= 0.20
     Davidson diagonalization with overlap
     ethr =  8.92E-06,  avg # of iterations =  4.3

     total cpu time spent up to now is        3.6 secs

     total energy              =    -133.85593139 Ry
     estimated scf accuracy    <       0.00028839 Ry

     iteration # 14     ecut=    90.00 Ry     beta= 0.20
     Davidson diagonalization with overlap
     ethr =  6.55E-07,  avg # of iterations =  5.2

     total cpu time spent up to now is        3.8 secs

     total energy              =    -133.85607256 Ry
     estimated scf accuracy    <       0.00001760 Ry

     iteration # 15     ecut=    90.00 Ry     beta= 0.20
     Davidson diagonalization with overlap
     ethr =  4.00E-08,  avg # of iterations =  6.0

     total cpu time spent up to now is        4.0 secs

     total energy              =    -133.85609290 Ry
     estimated scf accuracy    <       0.00001083 Ry

     iteration # 16     ecut=    90.00 Ry     beta= 0.20
     Davidson diagonalization with overlap
     ethr =  2.46E-08,  avg # of iterations = 10.8

     total cpu time spent up to now is        4.4 secs

     total energy              =    -133.85606085 Ry
     estimated scf accuracy    <       0.00043073 Ry

     iteration # 17     ecut=    90.00 Ry     beta= 0.20
     Davidson diagonalization with overlap
     ethr =  2.46E-08,  avg # of iterations =  8.3

     total cpu time spent up to now is        4.7 secs

     total energy              =    -133.85607683 Ry
     estimated scf accuracy    <       0.00004782 Ry

     iteration # 18     ecut=    90.00 Ry     beta= 0.20
     Davidson diagonalization with overlap
     ethr =  2.46E-08,  avg # of iterations =  3.5

     total cpu time spent up to now is        5.0 secs

     total energy              =    -133.85607791 Ry
     estimated scf accuracy    <       0.00001143 Ry

     iteration # 19     ecut=    90.00 Ry     beta= 0.20
     Davidson diagonalization with overlap
     ethr =  2.46E-08,  avg # of iterations =  3.2

     total cpu time spent up to now is        5.1 secs

     total energy              =    -133.85607801 Ry
     estimated scf accuracy    <       0.00000530 Ry

     iteration # 20     ecut=    90.00 Ry     beta= 0.20
     Davidson diagonalization with overlap
     ethr =  1.20E-08,  avg # of iterations =  2.5

     total cpu time spent up to now is        5.3 secs

     total energy              =    -133.85607821 Ry
     estimated scf accuracy    <       0.00000236 Ry

     iteration # 21     ecut=    90.00 Ry     beta= 0.20
     Davidson diagonalization with overlap
     ethr =  5.36E-09,  avg # of iterations =  3.0

     total cpu time spent up to now is        5.5 secs

     total energy              =    -133.85607838 Ry
     estimated scf accuracy    <       0.00000129 Ry

     iteration # 22     ecut=    90.00 Ry     beta= 0.20
     Davidson diagonalization with overlap
     ethr =  2.93E-09,  avg # of iterations =  2.5

     total cpu time spent up to now is        5.7 secs

     total energy              =    -133.85607857 Ry
     estimated scf accuracy    <       0.00000011 Ry

     iteration # 23     ecut=    90.00 Ry     beta= 0.20
     Davidson diagonalization with overlap
     ethr =  2.45E-10,  avg # of iterations =  7.3

     total cpu time spent up to now is        5.9 secs

     total energy              =    -133.85607864 Ry
     estimated scf accuracy    <       0.00000001 Ry

     iteration # 24     ecut=    90.00 Ry     beta= 0.20
     Davidson diagonalization with overlap
     ethr =  3.26E-11,  avg # of iterations =  3.3

     total cpu time spent up to now is        6.1 secs

     total energy              =    -133.85607865 Ry
     estimated scf accuracy    <       0.00000005 Ry

     iteration # 25     ecut=    90.00 Ry     beta= 0.20
     Davidson diagonalization with overlap
     ethr =  3.26E-11,  avg # of iterations =  1.2

     total cpu time spent up to now is        6.3 secs

     total energy              =    -133.85607866 Ry
     estimated scf accuracy    <       0.00000007 Ry

     iteration # 26     ecut=    90.00 Ry     beta= 0.20
     Davidson diagonalization with overlap
     ethr =  3.26E-11,  avg # of iterations =  5.7

     total cpu time spent up to now is        6.5 secs

     total energy              =    -133.85607869 Ry
     estimated scf accuracy    <       0.00000022 Ry

     iteration # 27     ecut=    90.00 Ry     beta= 0.20
     Davidson diagonalization with overlap
     ethr =  3.26E-11,  avg # of iterations =  6.7

     total cpu time spent up to now is        6.7 secs

     total energy              =    -133.85607861 Ry
     estimated scf accuracy    <       0.00000039 Ry

     iteration # 28     ecut=    90.00 Ry     beta= 0.20
     Davidson diagonalization with overlap
     ethr =  3.26E-11,  avg # of iterations =  8.0

     total cpu time spent up to now is        7.1 secs

     total energy              =    -133.85607863 Ry
     estimated scf accuracy    <       0.00000002 Ry

     iteration # 29     ecut=    90.00 Ry     beta= 0.20
     Davidson diagonalization with overlap
     ethr =  3.26E-11,  avg # of iterations =  8.2

     total cpu time spent up to now is        7.4 secs

     total energy              =    -133.85607870 Ry
     estimated scf accuracy    <       0.00000011 Ry

     iteration # 30     ecut=    90.00 Ry     beta= 0.20
     Davidson diagonalization with overlap
     ethr =  3.26E-11,  avg # of iterations =  8.7

     total cpu time spent up to now is        7.7 secs

     total energy              =    -133.85607867 Ry
     estimated scf accuracy    <       0.00000074 Ry

     iteration # 31     ecut=    90.00 Ry     beta= 0.20
     Davidson diagonalization with overlap
     ethr =  3.26E-11,  avg # of iterations =  6.8

     total cpu time spent up to now is        7.9 secs

     total energy              =    -133.85607867 Ry
     estimated scf accuracy    <       0.00000034 Ry

     iteration # 32     ecut=    90.00 Ry     beta= 0.20
     Davidson diagonalization with overlap
     ethr =  3.26E-11,  avg # of iterations =  1.0

     total cpu time spent up to now is        8.1 secs

     total energy              =    -133.85607859 Ry
     estimated scf accuracy    <       0.00000030 Ry

     iteration # 33     ecut=    90.00 Ry     beta= 0.20
     Davidson diagonalization with overlap
     ethr =  3.26E-11,  avg # of iterations =  9.2

     total cpu time spent up to now is        8.4 secs

     total energy              =    -133.85607863 Ry
     estimated scf accuracy    <       0.00000002 Ry

     iteration # 34     ecut=    90.00 Ry     beta= 0.20
     Davidson diagonalization with overlap
     ethr =  3.26E-11,  avg # of iterations =  6.3

     total cpu time spent up to now is        8.7 secs

     End of self-consistent calculation

          k = 0.0000 0.0000 0.0000 ( 14623 PWs)   bands (ev):

   -18.4756 -18.2270 -15.7739 -15.7739 -12.3496 -12.2669  -8.9506  -8.6497
    -7.3432  -7.3432  -7.0315  -6.5216  -5.9877  -5.9877  -4.0303  -4.0303
    -1.0036  -0.9094  -0.4466   0.0504   1.0702   1.0702

          k = 0.0000 0.0000 0.4005 ( 14687 PWs)   bands (ev):

   -18.3790 -18.2515 -15.7535 -15.7535 -12.7117 -12.4077  -9.0275  -8.5032
    -7.5376  -7.5376  -6.3601  -6.0390  -5.9353  -5.9353  -4.0264  -4.0264
    -1.4150  -1.0676  -0.7478  -0.0930   1.0397   1.0397

          k = 0.0000 0.3333 0.0000 ( 14674 PWs)   bands (ev):

   -18.4139 -18.2895 -15.7771 -15.7766 -12.3197 -12.2788  -8.8753  -8.7181
    -7.3600  -7.3527  -7.0898  -6.8798  -5.7236  -5.6656  -4.1580  -4.1435
    -0.8183  -0.6148  -0.5381  -0.1338   1.1476   1.1493

          k = 0.0000 0.3333 0.4005 ( 14700 PWs)   bands (ev):

   -18.3443 -18.2803 -15.7631 -15.7626 -12.6247 -12.4721  -8.9312  -8.6704
    -7.5394  -7.5389  -6.3831  -6.2862  -5.7765  -5.6999  -4.1090  -4.0899
    -1.2410  -1.0687  -0.5125  -0.1747   0.9557   0.9692

          k = 0.3333 0.3333 0.0000 ( 14745 PWs)   bands (ev):

   -18.3800 -18.3176 -15.7849 -15.7823 -12.3077 -12.2870  -8.8544  -8.7752
    -7.3601  -7.3541  -6.9830  -6.7305  -5.9912  -5.6922  -4.1934  -4.1187
    -0.7689  -0.6251  -0.3852  -0.1281   1.1232   1.2677

          k = 0.3333 0.3333 0.4005 ( 14669 PWs)   bands (ev):

   -18.3255 -18.2935 -15.7680 -15.7639 -12.5983 -12.5205  -8.8415  -8.7043
    -7.5566  -7.5490  -6.3263  -6.1945  -5.9487  -5.7388  -4.1214  -4.0759
    -1.2449  -1.1383  -0.3245  -0.1431   0.9095   1.0084

     highest occupied level (ev):     1.2677

!    total energy              =    -133.85607864 Ry
     estimated scf accuracy    <          4.8E-09 Ry

     The total energy is the sum of the following terms:
     one-electron contribution =     -98.04561103 Ry
     hartree contribution      =      63.45205534 Ry
     xc contribution           =     -40.22129461 Ry
     ewald contribution        =     -58.98105908 Ry
     Dispersion Correction     =      -0.06016925 Ry

     convergence has been achieved in  34 iterations

     Forces acting on atoms (cartesian axes, Ry/au):

     atom    1 type  1   force =     0.00000000    0.00000000   -0.26414325
     atom    2 type  1   force =     0.00000000    0.00000000    0.26414325
     atom    3 type  2   force =     0.00000000    0.00000000    0.33662621
     atom    4 type  2   force =     0.00000000    0.00000000   -0.33662621
     atom    5 type  3   force =    -0.00007044   -0.00007044   -0.00088260
     atom    6 type  3   force =     0.00007044    0.00007044   -0.00088260
     atom    7 type  3   force =    -0.00007044    0.00007044    0.00088260
     atom    8 type  3   force =     0.00007044   -0.00007044    0.00088260
     atom    9 type  4   force =     0.04753415    0.04753415    0.02428333
     atom   10 type  4   force =    -0.04753415   -0.04753415    0.02428333
     atom   11 type  4   force =     0.04753415   -0.04753415   -0.02428333
     atom   12 type  4   force =    -0.04753415    0.04753415   -0.02428333
     atom   13 type  4   force =    -0.00228473   -0.00228473   -0.06956407
     atom   14 type  4   force =     0.00228473    0.00228473   -0.06956407
     atom   15 type  4   force =    -0.00228473    0.00228473    0.06956407
     atom   16 type  4   force =     0.00228473   -0.00228473    0.06956407

     Total force =     0.637192     Total SCF correction =     0.000062

     BFGS Geometry Optimization
     Energy error            =      4.1E-01 Ry
     Gradient error          =      3.4E-01 Ry/Bohr

     number of scf cycles    =   1
     number of bfgs steps    =   0

     energy             new  =    -133.8560786359 Ry

     new trust radius        =       0.3366262070 bohr
     new conv_thr            =       0.0000000100 Ry


ATOMIC_POSITIONS (crystal)
C                0.0000000000        0.5000000000        0.3033356142
C                0.5000000000        0.0000000000        0.6966643608
O                0.0000000000        0.5000000000        0.6346045449
O                0.5000000000        0.0000000000        0.3653954551
N                0.1438934265        0.6438933745        0.1831008838
N                0.8561065415        0.3561066255        0.1831008838
N                0.6438933745        0.8561065415        0.8168991292
N                0.3561066255        0.1438934265        0.8168991292
H                0.2566433954        0.7566433744        0.2866271106
H                0.7433565836        0.2433566046        0.2866271106
H                0.7566433744        0.7433565836        0.7133728644
H                0.2433566046        0.2566433954        0.7133728644
H                0.1362864298        0.6362864408        0.9645876783
H                0.8637135592        0.3637135592        0.9645876783
H                0.6362864408        0.8637135592        0.0354123247
H                0.3637135592        0.1362864298        0.0354123247



     Writing config-only to output data dir /tmp/ceresoli/urea.save/ :
     XML data file
     NEW-OLD atomic charge density approx. for the potential

     total cpu time spent up to now is        8.8 secs

     Self-consistent Calculation

     iteration #  1     ecut=    90.00 Ry     beta= 0.20
     Davidson diagonalization with overlap
     c_bands:  1 eigenvalues not converged
     c_bands:  1 eigenvalues not converged
     ethr =  1.00E-06,  avg # of iterations = 18.7

     total cpu time spent up to now is        9.7 secs

     total energy              =    -133.88823969 Ry
     estimated scf accuracy    <       0.15291244 Ry

     iteration #  2     ecut=    90.00 Ry     beta= 0.20
     Davidson diagonalization with overlap
     ethr =  3.48E-04,  avg # of iterations =  1.0

     total cpu time spent up to now is        9.9 secs

     total energy              =    -133.85979833 Ry
     estimated scf accuracy    <       0.07443792 Ry

     iteration #  3     ecut=    90.00 Ry     beta= 0.20
     Davidson diagonalization with overlap
     ethr =  1.69E-04,  avg # of iterations =  2.0

     total cpu time spent up to now is       10.1 secs

     total energy              =    -133.86981547 Ry
     estimated scf accuracy    <       0.00633120 Ry

     iteration #  4     ecut=    90.00 Ry     beta= 0.20
     Davidson diagonalization with overlap
     ethr =  1.44E-05,  avg # of iterations =  3.2

     total cpu time spent up to now is       10.3 secs

     total energy              =    -133.87112264 Ry
     estimated scf accuracy    <       0.00041996 Ry

     iteration #  5     ecut=    90.00 Ry     beta= 0.20
     Davidson diagonalization with overlap
     ethr =  9.54E-07,  avg # of iterations =  7.0

     total cpu time spent up to now is       10.6 secs

     total energy              =    -133.87134876 Ry
     estimated scf accuracy    <       0.00019024 Ry

     iteration #  6     ecut=    90.00 Ry     beta= 0.20
     Davidson diagonalization with overlap
     ethr =  4.32E-07,  avg # of iterations =  1.0

     total cpu time spent up to now is       10.8 secs

     total energy              =    -133.87139029 Ry
     estimated scf accuracy    <       0.00009387 Ry

     iteration #  7     ecut=    90.00 Ry     beta= 0.20
     Davidson diagonalization with overlap
     ethr =  2.13E-07,  avg # of iterations =  2.0

     total cpu time spent up to now is       11.0 secs

     total energy              =    -133.87139934 Ry
     estimated scf accuracy    <       0.00000483 Ry

     iteration #  8     ecut=    90.00 Ry     beta= 0.20
     Davidson diagonalization with overlap
     ethr =  1.10E-08,  avg # of iterations =  3.7

     total cpu time spent up to now is       11.3 secs

     total energy              =    -133.87140094 Ry
     estimated scf accuracy    <       0.00000244 Ry

     iteration #  9     ecut=    90.00 Ry     beta= 0.20
     Davidson diagonalization with overlap
     ethr =  5.54E-09,  avg # of iterations =  3.3

     total cpu time spent up to now is       11.5 secs

     total energy              =    -133.87140120 Ry
     estimated scf accuracy    <       0.00000019 Ry

     iteration # 10     ecut=    90.00 Ry     beta= 0.20
     Davidson diagonalization with overlap
     ethr =  4.33E-10,  avg # of iterations =  7.0

     total cpu time spent up to now is       11.8 secs

     total energy              =    -133.87140128 Ry
     estimated scf accuracy    <       0.00000014 Ry

     iteration # 11     ecut=    90.00 Ry     beta= 0.20
     Davidson diagonalization with overlap
     ethr =  3.26E-10,  avg # of iterations =  3.3

     total cpu time spent up to now is       12.1 secs

     total energy              =    -133.87140130 Ry
     estimated scf accuracy    <       0.00000005 Ry

     iteration # 12     ecut=    90.00 Ry     beta= 0.20
     Davidson diagonalization with overlap
     ethr =  1.16E-10,  avg # of iterations =  2.0

     total cpu time spent up to now is       12.3 secs

     End of self-consistent calculation

          k = 0.0000 0.0000 0.0000 ( 14623 PWs)   bands (ev):

   -18.6347 -18.4129 -16.0301 -16.0301 -10.3157 -10.0965  -9.1204  -8.5258
    -7.2361  -7.2361  -7.0100  -6.3860  -6.1932  -6.1932  -4.0526  -4.0526
    -1.0607  -0.1594  -0.1374   0.3788   1.3160   1.3160

          k = 0.0000 0.0000 0.4005 ( 14687 PWs)   bands (ev):

   -18.5543 -18.4297 -16.0128 -16.0128 -10.9538 -10.5613  -9.1948  -8.4198
    -7.3410  -7.3410  -6.2586  -6.2586  -5.6551  -5.0619  -4.0376  -4.0376
    -1.2521  -0.9116  -0.9111  -0.2676   1.6191   1.6191

          k = 0.0000 0.3333 0.0000 ( 14674 PWs)   bands (ev):

   -18.5791 -18.4681 -16.0335 -16.0331 -10.2341 -10.1244  -8.9684  -8.6509
    -7.4895  -7.3834  -6.9738  -6.8350  -5.7844  -5.6915  -4.1335  -4.1308
    -0.7695  -0.3077  -0.0799   0.2071   1.3652   1.3720

          k = 0.0000 0.3333 0.4005 ( 14700 PWs)   bands (ev):

   -18.5207 -18.4582 -16.0200 -16.0196 -10.8277 -10.6196  -9.1078  -8.7208
    -7.3336  -7.3292  -6.2853  -6.2691  -5.3753  -5.0899  -4.0960  -4.0788
    -1.1244  -0.9448  -0.6742  -0.3464   1.4623   1.4799

          k = 0.3333 0.3333 0.0000 ( 14745 PWs)   bands (ev):

   -18.5486 -18.4929 -16.0397 -16.0381 -10.2164 -10.1583  -8.9091  -8.7613
    -7.4280  -7.2550  -6.9188  -6.6474  -6.1988  -5.7359  -4.1721  -4.1368
    -0.5510  -0.3097   0.0109   0.1726   1.3435   1.4057

          k = 0.3333 0.3333 0.4005 ( 14669 PWs)   bands (ev):

   -18.5024 -18.4711 -16.0244 -16.0220 -10.8202 -10.7055  -8.9484  -8.7187
    -7.3614  -7.3416  -6.2861  -6.2808  -5.3858  -5.1904  -4.1083  -4.0877
    -1.0990  -1.0073  -0.4938  -0.3232   1.4375   1.5955

     highest occupied level (ev):     1.6191

!    total energy              =    -133.87140130 Ry
     estimated scf accuracy    <          8.8E-09 Ry

     The total energy is the sum of the following terms:
     one-electron contribution =     -92.98005701 Ry
     hartree contribution      =      60.95580663 Ry
     xc contribution           =     -39.70366538 Ry
     ewald contribution        =     -62.08299874 Ry
     Dispersion Correction     =      -0.06048679 Ry

     convergence has been achieved in  12 iterations

     Forces acting on atoms (cartesian axes, Ry/au):

     atom    1 type  1   force =     0.00000000    0.00000000    0.31372618
     atom    2 type  1   force =     0.00000000    0.00000000   -0.31372618
     atom    3 type  2   force =     0.00000000    0.00000000   -0.11363088
     atom    4 type  2   force =     0.00000000    0.00000000    0.11363088
     atom    5 type  3   force =     0.05083747    0.05083747   -0.08800659
     atom    6 type  3   force =    -0.05083747   -0.05083747   -0.08800659
     atom    7 type  3   force =     0.05083747   -0.05083747    0.08800659
     atom    8 type  3   force =    -0.05083747    0.05083747    0.08800659
     atom    9 type  4   force =     0.01788657    0.01788657    0.01172992
     atom   10 type  4   force =    -0.01788657   -0.01788657    0.01172992
     atom   11 type  4   force =     0.01788657   -0.01788657   -0.01172992
     atom   12 type  4   force =    -0.01788657    0.01788657   -0.01172992
     atom   13 type  4   force =     0.01236936    0.01236936   -0.03491648
     atom   14 type  4   force =    -0.01236936   -0.01236936   -0.03491648
     atom   15 type  4   force =     0.01236936   -0.01236936    0.03491648
     atom   16 type  4   force =    -0.01236936    0.01236936    0.03491648

     Total force =     0.532484     Total SCF correction =     0.000163
     Energy error            =      1.5E-02 Ry
     Gradient error          =      3.1E-01 Ry/Bohr

     number of scf cycles    =   2
     number of bfgs steps    =   1

     energy             old  =    -133.8560786359 Ry
     energy             new  =    -133.8714012953 Ry

     CASE: energy            _new < energy            _old

     new trust radius        =       0.1590219711 bohr
     new conv_thr            =       0.0000000100 Ry


ATOMIC_POSITIONS (crystal)
C                0.0000000000        0.5000000000        0.3211944438
C                0.5000000000        0.0000000000        0.6788055312
O                0.0000000000        0.5000000000        0.6325403013
O                0.5000000000        0.0000000000        0.3674596987
N                0.1469523430        0.6469522910        0.1767206240
N                0.8530476250        0.3530477090        0.1767206240
N                0.6469522910        0.8530476250        0.8232793890
N                0.3530477090        0.1469523430        0.8232793890
H                0.2584432004        0.7584431794        0.2879192040
H                0.7415567786        0.2415567996        0.2879192040
H                0.7584431794        0.7415567786        0.7120807710
H                0.2415567996        0.2584432004        0.7120807710
H                0.1369962016        0.6369962126        0.9607912219
H                0.8630037874        0.3630037874        0.9607912219
H                0.6369962126        0.8630037874        0.0392087811
H                0.3630037874        0.1369962016        0.0392087811



     Writing config-only to output data dir /tmp/ceresoli/urea.save/ :
     XML data file
     NEW-OLD atomic charge density approx. for the potential

     total cpu time spent up to now is       12.4 secs

     Self-consistent Calculation

     iteration #  1     ecut=    90.00 Ry     beta= 0.20
     Davidson diagonalization with overlap
     ethr =  1.00E-06,  avg # of iterations = 13.5

     total cpu time spent up to now is       13.2 secs

     total energy              =    -133.95647449 Ry
     estimated scf accuracy    <       0.03974567 Ry

     iteration #  2     ecut=    90.00 Ry     beta= 0.20
     Davidson diagonalization with overlap
     ethr =  9.03E-05,  avg # of iterations =  1.0

     total cpu time spent up to now is       13.4 secs

     total energy              =    -133.95269223 Ry
     estimated scf accuracy    <       0.01322811 Ry

     iteration #  3     ecut=    90.00 Ry     beta= 0.20
     Davidson diagonalization with overlap
     ethr =  3.01E-05,  avg # of iterations =  3.3

     total cpu time spent up to now is       13.7 secs

     total energy              =    -133.95470278 Ry
     estimated scf accuracy    <       0.00277075 Ry

     iteration #  4     ecut=    90.00 Ry     beta= 0.20
     Davidson diagonalization with overlap
     ethr =  6.30E-06,  avg # of iterations =  4.0

     total cpu time spent up to now is       13.9 secs

     total energy              =    -133.95531770 Ry
     estimated scf accuracy    <       0.00148793 Ry

     iteration #  5     ecut=    90.00 Ry     beta= 0.20
     Davidson diagonalization with overlap
     ethr =  3.38E-06,  avg # of iterations =  1.5

     total cpu time spent up to now is       14.1 secs

     total energy              =    -133.95512783 Ry
     estimated scf accuracy    <       0.00052276 Ry

     iteration #  6     ecut=    90.00 Ry     beta= 0.20
     Davidson diagonalization with overlap
     ethr =  1.19E-06,  avg # of iterations =  7.0

     total cpu time spent up to now is       14.4 secs

     total energy              =    -133.95540287 Ry
     estimated scf accuracy    <       0.00034389 Ry

     iteration #  7     ecut=    90.00 Ry     beta= 0.20
     Davidson diagonalization with overlap
     ethr =  7.82E-07,  avg # of iterations =  1.3

     total cpu time spent up to now is       14.6 secs

     total energy              =    -133.95530229 Ry
     estimated scf accuracy    <       0.00022344 Ry

     iteration #  8     ecut=    90.00 Ry     beta= 0.20
     Davidson diagonalization with overlap
     ethr =  5.08E-07,  avg # of iterations =  5.2

     total cpu time spent up to now is       14.9 secs

     total energy              =    -133.95536258 Ry
     estimated scf accuracy    <       0.00001332 Ry

     iteration #  9     ecut=    90.00 Ry     beta= 0.20
     Davidson diagonalization with overlap
     ethr =  3.03E-08,  avg # of iterations =  6.0

     total cpu time spent up to now is       15.2 secs

     total energy              =    -133.95536656 Ry
     estimated scf accuracy    <       0.00000206 Ry

     iteration # 10     ecut=    90.00 Ry     beta= 0.20
     Davidson diagonalization with overlap
     ethr =  4.68E-09,  avg # of iterations =  7.5

     total cpu time spent up to now is       15.6 secs

     total energy              =    -133.95536686 Ry
     estimated scf accuracy    <       0.00000454 Ry

     iteration # 11     ecut=    90.00 Ry     beta= 0.20
     Davidson diagonalization with overlap
     ethr =  4.68E-09,  avg # of iterations =  4.7

     total cpu time spent up to now is       15.9 secs

     total energy              =    -133.95536761 Ry
     estimated scf accuracy    <       0.00000009 Ry

     iteration # 12     ecut=    90.00 Ry     beta= 0.20
     Davidson diagonalization with overlap
     ethr =  2.10E-10,  avg # of iterations =  7.7

     total cpu time spent up to now is       16.2 secs

     total energy              =    -133.95536768 Ry
     estimated scf accuracy    <       0.00000001 Ry

     iteration # 13     ecut=    90.00 Ry     beta= 0.20
     Davidson diagonalization with overlap
     ethr =  2.81E-11,  avg # of iterations =  4.7

     total cpu time spent up to now is       16.5 secs

     total energy              =    -133.95536766 Ry
     estimated scf accuracy    <       0.00000006 Ry

     iteration # 14     ecut=    90.00 Ry     beta= 0.20
     Davidson diagonalization with overlap
     ethr =  2.81E-11,  avg # of iterations =  5.2

     total cpu time spent up to now is       16.8 secs

     End of self-consistent calculation

          k = 0.0000 0.0000 0.0000 ( 14623 PWs)   bands (ev):

   -18.0168 -17.7379 -15.4793 -15.4793 -10.8804 -10.6906  -8.7141  -8.1785
    -7.2281  -6.8751  -6.8751  -6.5526  -5.8592  -5.8592  -3.5474  -3.5474
    -0.8957  -0.6444  -0.0864   0.1138   1.0234   1.0234

          k = 0.0000 0.0000 0.4005 ( 14687 PWs)   bands (ev):

   -17.9107 -17.7586 -15.4575 -15.4575 -11.4657 -11.1059  -8.7766  -7.9739
    -7.0981  -7.0981  -6.0760  -5.8060  -5.8060  -5.5827  -3.5440  -3.5440
    -1.4694  -1.0869  -0.7413  -0.0218   1.2848   1.2848

          k = 0.0000 0.3333 0.0000 ( 14674 PWs)   bands (ev):

   -17.9479 -17.8083 -15.4829 -15.4824 -10.8098 -10.7154  -8.5693  -8.2632
    -7.4118  -7.1007  -6.8693  -6.8629  -5.4797  -5.4082  -3.6688  -3.6636
    -0.5860  -0.5141  -0.2210  -0.0899   1.1046   1.1146

          k = 0.0000 0.3333 0.4005 ( 14700 PWs)   bands (ev):

   -17.8694 -17.7931 -15.4678 -15.4671 -11.3540 -11.1700  -8.6641  -8.2714
    -7.0992  -7.0986  -6.1602  -6.0445  -5.4794  -5.3343  -3.6307  -3.6087
    -1.3002  -1.1032  -0.4863  -0.1201   1.1504   1.1655

          k = 0.3333 0.3333 0.0000 ( 14745 PWs)   bands (ev):

   -17.9097 -17.8396 -15.4911 -15.4885 -10.7880 -10.7392  -8.5554  -8.4082
    -7.2272  -6.8896  -6.8892  -6.7918  -5.8658  -5.4412  -3.7153  -3.6512
    -0.4434  -0.3473  -0.2873  -0.0844   1.0996   1.1717

          k = 0.3333 0.3333 0.4005 ( 14669 PWs)   bands (ev):

   -17.8471 -17.8088 -15.4730 -15.4687 -11.3377 -11.2394  -8.5175  -8.2978
    -7.1219  -7.1113  -6.0963  -5.8195  -5.8154  -5.4009  -3.6462  -3.6058
    -1.2933  -1.1822  -0.2877  -0.0945   1.1174   1.2714

     highest occupied level (ev):     1.2848

!    total energy              =    -133.95536768 Ry
     estimated scf accuracy    <          2.4E-10 Ry

     The total energy is the sum of the following terms:
     one-electron contribution =     -88.39977913 Ry
     hartree contribution      =      58.76471680 Ry
     xc contribution           =     -39.51481361 Ry
     ewald contribution        =     -64.74383903 Ry
     Dispersion Correction     =      -0.06165271 Ry

     convergence has been achieved in  14 iterations

     Forces acting on atoms (cartesian axes, Ry/au):

     atom    1 type  1   force =     0.00000000    0.00000000    0.08264246
     atom    2 type  1   force =     0.00000000    0.00000000   -0.08264246
     atom    3 type  2   force =     0.00000000    0.00000000   -0.08507355
     atom    4 type  2   force =     0.00000000    0.00000000    0.08507355
     atom    5 type  3   force =    -0.01088566   -0.01088566    0.04005048
     atom    6 type  3   force =     0.01088566    0.01088566    0.04005048
     atom    7 type  3   force =    -0.01088566    0.01088566   -0.04005048
     atom    8 type  3   force =     0.01088566   -0.01088566   -0.04005048
     atom    9 type  4   force =     0.00843153    0.00843153   -0.01015703
     atom   10 type  4   force =    -0.00843153   -0.00843153   -0.01015703
     atom   11 type  4   force =     0.00843153   -0.00843153    0.01015703
     atom   12 type  4   force =    -0.00843153    0.00843153    0.01015703
     atom   13 type  4   force =     0.00474436    0.00474436   -0.04194485
     atom   14 type  4   force =    -0.00474436   -0.00474436   -0.04194485
     atom   15 type  4   force =     0.00474436   -0.00474436    0.04194485
     atom   16 type  4   force =    -0.00474436    0.00474436    0.04194485

     Total force =     0.209040     Total SCF correction =     0.000013
     Energy error            =      8.4E-02 Ry
     Gradient error          =      8.5E-02 Ry/Bohr

     number of scf cycles    =   3
     number of bfgs steps    =   2

     energy             old  =    -133.8714012953 Ry
     energy             new  =    -133.9553676756 Ry

     CASE: energy            _new < energy            _old

     new trust radius        =       0.1038287422 bohr
     new conv_thr            =       0.0000000085 Ry


ATOMIC_POSITIONS (crystal)
C                0.0000000000        0.5000000000        0.3328548440
C                0.5000000000        0.0000000000        0.6671451310
O                0.0000000000        0.5000000000        0.6217714872
O                0.5000000000        0.0000000000        0.3782285128
N                0.1459337081        0.6459336561        0.1816912697
N                0.8540662599        0.3540663439        0.1816912697
N                0.6459336561        0.8540662599        0.8183087433
N                0.3540663439        0.1459337081        0.8183087433
H                0.2596038548        0.7596038338        0.2866960202
H                0.7403961242        0.2403961452        0.2866960202
H                0.7596038338        0.7403961242        0.7133039548
H                0.2403961452        0.2596038548        0.7133039548
H                0.1375701605        0.6375701715        0.9547219309
H                0.8624298285        0.3624298285        0.9547219309
H                0.6375701715        0.8624298285        0.0452780721
H                0.3624298285        0.1375701605        0.0452780721



     Writing config-only to output data dir /tmp/ceresoli/urea.save/ :
     XML data file
     NEW-OLD atomic charge density approx. for the potential

     total cpu time spent up to now is       16.9 secs

     Self-consistent Calculation

     iteration #  1     ecut=    90.00 Ry     beta= 0.20
     Davidson diagonalization with overlap
     ethr =  1.00E-06,  avg # of iterations = 13.2

     total cpu time spent up to now is       17.8 secs

     total energy              =    -133.96518465 Ry
     estimated scf accuracy    <       0.04623685 Ry

     iteration #  2     ecut=    90.00 Ry     beta= 0.20
     Davidson diagonalization with overlap
     ethr =  1.05E-04,  avg # of iterations =  2.0

     total cpu time spent up to now is       18.0 secs

     total energy              =    -133.96374997 Ry
     estimated scf accuracy    <       0.01146967 Ry

     iteration #  3     ecut=    90.00 Ry     beta= 0.20
     Davidson diagonalization with overlap
     ethr =  2.61E-05,  avg # of iterations =  4.3

     total cpu time spent up to now is       18.3 secs

     total energy              =    -133.96714932 Ry
     estimated scf accuracy    <       0.00368415 Ry

     iteration #  4     ecut=    90.00 Ry     beta= 0.20
     Davidson diagonalization with overlap
     ethr =  8.37E-06,  avg # of iterations =  2.7

     total cpu time spent up to now is       18.5 secs

     total energy              =    -133.96637733 Ry
     estimated scf accuracy    <       0.00243938 Ry

     iteration #  5     ecut=    90.00 Ry     beta= 0.20
     Davidson diagonalization with overlap
     ethr =  5.54E-06,  avg # of iterations =  5.3

     total cpu time spent up to now is       18.8 secs

     total energy              =    -133.96704188 Ry
     estimated scf accuracy    <       0.00182201 Ry

     iteration #  6     ecut=    90.00 Ry     beta= 0.20
     Davidson diagonalization with overlap
     ethr =  4.14E-06,  avg # of iterations =  2.0

     total cpu time spent up to now is       19.0 secs

     total energy              =    -133.96676034 Ry
     estimated scf accuracy    <       0.00061200 Ry

     iteration #  7     ecut=    90.00 Ry     beta= 0.20
     Davidson diagonalization with overlap
     ethr =  1.39E-06,  avg # of iterations =  7.0

     total cpu time spent up to now is       19.4 secs

     total energy              =    -133.96709516 Ry
     estimated scf accuracy    <       0.00044481 Ry

     iteration #  8     ecut=    90.00 Ry     beta= 0.20
     Davidson diagonalization with overlap
     ethr =  1.01E-06,  avg # of iterations =  1.7

     total cpu time spent up to now is       19.6 secs

     total energy              =    -133.96701685 Ry
     estimated scf accuracy    <       0.00022115 Ry

     iteration #  9     ecut=    90.00 Ry     beta= 0.20
     Davidson diagonalization with overlap
     ethr =  5.03E-07,  avg # of iterations =  5.3

     total cpu time spent up to now is       20.3 secs

     total energy              =    -133.96707000 Ry
     estimated scf accuracy    <       0.00000168 Ry

     iteration # 10     ecut=    90.00 Ry     beta= 0.20
     Davidson diagonalization with overlap
     ethr =  3.83E-09,  avg # of iterations =  7.7

     total cpu time spent up to now is       20.7 secs

     total energy              =    -133.96707373 Ry
     estimated scf accuracy    <       0.00000062 Ry

     iteration # 11     ecut=    90.00 Ry     beta= 0.20
     Davidson diagonalization with overlap
     ethr =  1.41E-09,  avg # of iterations =  5.7

     total cpu time spent up to now is       21.0 secs

     total energy              =    -133.96707352 Ry
     estimated scf accuracy    <       0.00000105 Ry

     iteration # 12     ecut=    90.00 Ry     beta= 0.20
     Davidson diagonalization with overlap
     ethr =  1.41E-09,  avg # of iterations =  6.0

     total cpu time spent up to now is       21.3 secs

     total energy              =    -133.96707378 Ry
     estimated scf accuracy    <       0.00000034 Ry

     iteration # 13     ecut=    90.00 Ry     beta= 0.20
     Davidson diagonalization with overlap
     ethr =  7.68E-10,  avg # of iterations =  4.2

     total cpu time spent up to now is       21.6 secs

     total energy              =    -133.96707386 Ry
     estimated scf accuracy    <       0.00000001 Ry

     iteration # 14     ecut=    90.00 Ry     beta= 0.20
     Davidson diagonalization with overlap
     ethr =  2.89E-11,  avg # of iterations =  7.8

     total cpu time spent up to now is       22.0 secs

     End of self-consistent calculation

          k = 0.0000 0.0000 0.0000 ( 14623 PWs)   bands (ev):

   -17.9331 -17.6501 -15.2526 -15.2526 -11.4857 -11.2861  -8.6976  -8.1293
    -7.0240  -6.6608  -6.6608  -6.3094  -5.6524  -5.6524  -3.6067  -3.6067
    -0.8088  -0.8076  -0.1960   0.1895   0.8674   0.8674

          k = 0.0000 0.0000 0.4005 ( 14687 PWs)   bands (ev):

   -17.8191 -17.6726 -15.2285 -15.2285 -11.9827 -11.5863  -8.7078  -7.9772
    -6.9011  -6.9011  -5.9748  -5.6178  -5.6177  -5.5720  -3.5992  -3.5992
    -1.5590  -1.1075  -0.6438   0.0431   1.1234   1.1234

          k = 0.0000 0.3333 0.0000 ( 14674 PWs)   bands (ev):

   -17.8633 -17.7217 -15.2566 -15.2560 -11.4180 -11.3186  -8.5653  -8.2630
    -7.1527  -6.8850  -6.6175  -6.5688  -5.2991  -5.2221  -3.7530  -3.7395
    -0.6406  -0.5076  -0.3253  -0.0224   0.9491   0.9610

          k = 0.0000 0.3333 0.4005 ( 14700 PWs)   bands (ev):

   -17.7791 -17.7055 -15.2409 -15.2401 -11.8648 -11.6643  -8.5965  -8.2375
    -6.9062  -6.9048  -6.0259  -5.9308  -5.3543  -5.2247  -3.7064  -3.6751
    -1.3547  -1.1271  -0.3981  -0.0450   0.9980   1.0127

          k = 0.3333 0.3333 0.0000 ( 14745 PWs)   bands (ev):

   -17.8247 -17.7536 -15.2649 -15.2624 -11.3941 -11.3436  -8.5289  -8.3859
    -6.9925  -6.6773  -6.6490  -6.5418  -5.6527  -5.2551  -3.7978  -3.7128
    -0.5721  -0.4098  -0.2667  -0.0039   0.9317   1.0350

          k = 0.3333 0.3333 0.4005 ( 14669 PWs)   bands (ev):

   -17.7575 -17.7207 -15.2463 -15.2402 -11.8378 -11.7338  -8.4659  -8.2684
    -6.9263  -6.9184  -5.9682  -5.7666  -5.6352  -5.2861  -3.7105  -3.6481
    -1.3506  -1.2188  -0.2018  -0.0123   0.9534   1.0970

     highest occupied level (ev):     1.1234

!    total energy              =    -133.96707387 Ry
     estimated scf accuracy    <          1.9E-09 Ry

     The total energy is the sum of the following terms:
     one-electron contribution =     -88.81475731 Ry
     hartree contribution      =      58.99011964 Ry
     xc contribution           =     -39.51523384 Ry
     ewald contribution        =     -64.56521301 Ry
     Dispersion Correction     =      -0.06198934 Ry

     convergence has been achieved in  14 iterations

     Forces acting on atoms (cartesian axes, Ry/au):

     atom    1 type  1   force =     0.00000000    0.00000000   -0.06165246
     atom    2 type  1   force =     0.00000000    0.00000000    0.06165246
     atom    3 type  2   force =     0.00000000    0.00000000    0.05458143
     atom    4 type  2   force =     0.00000000    0.00000000   -0.05458143
     atom    5 type  3   force =     0.00234804    0.00234804   -0.02478827
     atom    6 type  3   force =    -0.00234804   -0.00234804   -0.02478827
     atom    7 type  3   force =     0.00234804   -0.00234804    0.02478827
     atom    8 type  3   force =    -0.00234804    0.00234804    0.02478827
     atom    9 type  4   force =     0.00391947    0.00391947   -0.00775413
     atom   10 type  4   force =    -0.00391947   -0.00391947   -0.00775413
     atom   11 type  4   force =     0.00391947   -0.00391947    0.00775413
     atom   12 type  4   force =    -0.00391947    0.00391947    0.00775413
     atom   13 type  4   force =    -0.00173245   -0.00173245    0.02430046
     atom   14 type  4   force =     0.00173245    0.00173245    0.02430046
     atom   15 type  4   force =    -0.00173245    0.00173245   -0.02430046
     atom   16 type  4   force =     0.00173245   -0.00173245   -0.02430046

     Total force =     0.137156     Total SCF correction =     0.000031
     Energy error            =      1.2E-02 Ry
     Gradient error          =      6.2E-02 Ry/Bohr

     number of scf cycles    =   4
     number of bfgs steps    =   3

     energy             old  =    -133.9553676756 Ry
     energy             new  =    -133.9670738685 Ry

     CASE: energy            _new < energy            _old

     new trust radius        =       0.0422822098 bohr
     new conv_thr            =       0.0000000062 Ry


ATOMIC_POSITIONS (crystal)
C                0.0000000000        0.5000000000        0.3281063757
C                0.5000000000        0.0000000000        0.6718935993
O                0.0000000000        0.5000000000        0.6258957321
O                0.5000000000        0.0000000000        0.3741042679
N                0.1461359858        0.6461359338        0.1796507447
N                0.8538639822        0.3538640662        0.1796507447
N                0.6461359338        0.8538639822        0.8203492683
N                0.3538640662        0.1461359858        0.8203492683
H                0.2597112862        0.7597112652        0.2862140758
H                0.7402886928        0.2402887138        0.2862140758
H                0.7597112652        0.7402886928        0.7137858992
H                0.2402887138        0.2597112862        0.7137858992
H                0.1374347778        0.6374347888        0.9568754284
H                0.8625652112        0.3625652112        0.9568754284
H                0.6374347888        0.8625652112        0.0431245746
H                0.3625652112        0.1374347778        0.0431245746



     Writing config-only to output data dir /tmp/ceresoli/urea.save/ :
     XML data file
     NEW-OLD atomic charge density approx. for the potential

     total cpu time spent up to now is       22.1 secs

     Self-consistent Calculation

     iteration #  1     ecut=    90.00 Ry     beta= 0.20
     Davidson diagonalization with overlap
     ethr =  1.00E-06,  avg # of iterations =  9.0

     total cpu time spent up to now is       22.8 secs

     total energy              =    -133.97303304 Ry
     estimated scf accuracy    <       0.00690476 Ry

     iteration #  2     ecut=    90.00 Ry     beta= 0.20
     Davidson diagonalization with overlap
     ethr =  1.57E-05,  avg # of iterations =  2.0

     total cpu time spent up to now is       23.0 secs

     total energy              =    -133.97263697 Ry
     estimated scf accuracy    <       0.00194615 Ry

     iteration #  3     ecut=    90.00 Ry     beta= 0.20
     Davidson diagonalization with overlap
     ethr =  4.42E-06,  avg # of iterations =  4.3

     total cpu time spent up to now is       23.3 secs

     total energy              =    -133.97322925 Ry
     estimated scf accuracy    <       0.00059302 Ry

     iteration #  4     ecut=    90.00 Ry     beta= 0.20
     Davidson diagonalization with overlap
     ethr =  1.35E-06,  avg # of iterations =  1.8

     total cpu time spent up to now is       23.5 secs

     total energy              =    -133.97306624 Ry
     estimated scf accuracy    <       0.00055496 Ry

     iteration #  5     ecut=    90.00 Ry     beta= 0.20
     Davidson diagonalization with overlap
     ethr =  1.26E-06,  avg # of iterations =  3.2

     total cpu time spent up to now is       23.7 secs

     total energy              =    -133.97317345 Ry
     estimated scf accuracy    <       0.00014993 Ry

     iteration #  6     ecut=    90.00 Ry     beta= 0.20
     Davidson diagonalization with overlap
     ethr =  3.41E-07,  avg # of iterations =  5.5

     total cpu time spent up to now is       24.1 secs

     total energy              =    -133.97311238 Ry
     estimated scf accuracy    <       0.00033916 Ry

     iteration #  7     ecut=    90.00 Ry     beta= 0.20
     Davidson diagonalization with overlap
     ethr =  3.41E-07,  avg # of iterations =  4.8

     total cpu time spent up to now is       24.4 secs

     total energy              =    -133.97314358 Ry
     estimated scf accuracy    <       0.00002096 Ry

     iteration #  8     ecut=    90.00 Ry     beta= 0.20
     Davidson diagonalization with overlap
     ethr =  4.76E-08,  avg # of iterations =  6.7

     total cpu time spent up to now is       24.7 secs

     total energy              =    -133.97315799 Ry
     estimated scf accuracy    <       0.00000931 Ry

     iteration #  9     ecut=    90.00 Ry     beta= 0.20
     Davidson diagonalization with overlap
     ethr =  2.12E-08,  avg # of iterations =  4.3

     total cpu time spent up to now is       25.0 secs

     total energy              =    -133.97314906 Ry
     estimated scf accuracy    <       0.00003419 Ry

     iteration # 10     ecut=    90.00 Ry     beta= 0.20
     Davidson diagonalization with overlap
     ethr =  2.12E-08,  avg # of iterations =  4.8

     total cpu time spent up to now is       25.3 secs

     total energy              =    -133.97315196 Ry
     estimated scf accuracy    <       0.00000216 Ry

     iteration # 11     ecut=    90.00 Ry     beta= 0.20
     Davidson diagonalization with overlap
     ethr =  4.91E-09,  avg # of iterations =  6.5

     total cpu time spent up to now is       25.7 secs

     total energy              =    -133.97315273 Ry
     estimated scf accuracy    <       0.00000004 Ry

     iteration # 12     ecut=    90.00 Ry     beta= 0.20
     Davidson diagonalization with overlap
     ethr =  9.58E-11,  avg # of iterations =  9.7

     total cpu time spent up to now is       26.1 secs

     total energy              =    -133.97315264 Ry
     estimated scf accuracy    <       0.00000053 Ry

     iteration # 13     ecut=    90.00 Ry     beta= 0.20
     Davidson diagonalization with overlap
     ethr =  9.58E-11,  avg # of iterations =  6.0

     total cpu time spent up to now is       26.5 secs

     total energy              =    -133.97315271 Ry
     estimated scf accuracy    <          1.0E-08 Ry

     iteration # 14     ecut=    90.00 Ry     beta= 0.20
     Davidson diagonalization with overlap
     ethr =  2.27E-11,  avg # of iterations =  4.0

     total cpu time spent up to now is       26.8 secs

     End of self-consistent calculation

          k = 0.0000 0.0000 0.0000 ( 14623 PWs)   bands (ev):

   -17.9636 -17.6834 -15.3265 -15.3265 -11.2375 -11.0414  -8.7133  -8.1240
    -7.1234  -6.7400  -6.7400  -6.3807  -5.7192  -5.7192  -3.5830  -3.5830
    -0.8378  -0.7451  -0.1394   0.1646   0.9290   0.9290

          k = 0.0000 0.0000 0.4005 ( 14687 PWs)   bands (ev):

   -17.8524 -17.7053 -15.3032 -15.3032 -11.7714 -11.3861  -8.7295  -7.9607
    -6.9720  -6.9720  -6.0136  -5.6782  -5.6782  -5.5650  -3.5787  -3.5787
    -1.5333  -1.0993  -0.6773   0.0230   1.1896   1.1896

          k = 0.0000 0.3333 0.0000 ( 14674 PWs)   bands (ev):

   -17.8944 -17.7542 -15.3304 -15.3298 -11.1690 -11.0713  -8.5723  -8.2528
    -7.2556  -6.9571  -6.7127  -6.6768  -5.3544  -5.2762  -3.7199  -3.7094
    -0.5892  -0.5332  -0.2746  -0.0435   1.0105   1.0208

          k = 0.0000 0.3333 0.4005 ( 14700 PWs)   bands (ev):

   -17.8123 -17.7384 -15.3148 -15.3141 -11.6555 -11.4598  -8.6156  -8.2388
    -6.9754  -6.9742  -6.0698  -5.9628  -5.3951  -5.2580  -3.6771  -3.6493
    -1.3391  -1.1185  -0.4279  -0.0693   1.0573   1.0724

          k = 0.3333 0.3333 0.0000 ( 14745 PWs)   bands (ev):

   -17.8561 -17.7857 -15.3386 -15.3361 -11.1459 -11.0961  -8.5399  -8.3895
    -7.0781  -6.7557  -6.7388  -6.6316  -5.7219  -5.3111  -3.7651  -3.6880
    -0.5174  -0.3538  -0.2933  -0.0306   0.9985   1.0884

          k = 0.3333 0.3333 0.4005 ( 14669 PWs)   bands (ev):

   -17.7906 -17.7536 -15.3202 -15.3148 -11.6321 -11.5297  -8.4775  -8.2691
    -6.9966  -6.9875  -6.0082  -5.7787  -5.6944  -5.3223  -3.6855  -3.6325
    -1.3333  -1.2071  -0.2307  -0.0397   1.0173   1.1677

     highest occupied level (ev):     1.1896

!    total energy              =    -133.97315271 Ry
     estimated scf accuracy    <          4.5E-09 Ry

     The total energy is the sum of the following terms:
     one-electron contribution =     -88.60056750 Ry
     hartree contribution      =      58.87929451 Ry
     xc contribution           =     -39.50495178 Ry
     ewald contribution        =     -64.68506251 Ry
     Dispersion Correction     =      -0.06186543 Ry

     convergence has been achieved in  14 iterations

     Forces acting on atoms (cartesian axes, Ry/au):

     atom    1 type  1   force =     0.00000000    0.00000000    0.00555518
     atom    2 type  1   force =     0.00000000    0.00000000   -0.00555518
     atom    3 type  2   force =     0.00000000    0.00000000   -0.00969034
     atom    4 type  2   force =     0.00000000    0.00000000    0.00969034
     atom    5 type  3   force =     0.00166992    0.00166992   -0.00237582
     atom    6 type  3   force =    -0.00166992   -0.00166992   -0.00237582
     atom    7 type  3   force =     0.00166992   -0.00166992    0.00237582
     atom    8 type  3   force =    -0.00166992    0.00166992    0.00237582
     atom    9 type  4   force =     0.00289669    0.00289669   -0.00942584
     atom   10 type  4   force =    -0.00289669   -0.00289669   -0.00942584
     atom   11 type  4   force =     0.00289669   -0.00289669    0.00942584
     atom   12 type  4   force =    -0.00289669    0.00289669    0.00942584
     atom   13 type  4   force =     0.00030321    0.00030321    0.00173446
     atom   14 type  4   force =    -0.00030321   -0.00030321    0.00173446
     atom   15 type  4   force =     0.00030321   -0.00030321   -0.00173446
     atom   16 type  4   force =    -0.00030321    0.00030321   -0.00173446

     Total force =     0.027013     Total SCF correction =     0.000063
     Energy error            =      6.1E-03 Ry
     Gradient error          =      9.7E-03 Ry/Bohr

     number of scf cycles    =   5
     number of bfgs steps    =   4

     energy             old  =    -133.9670738685 Ry
     energy             new  =    -133.9731527117 Ry

     CASE: energy            _new < energy            _old

     new trust radius        =       0.0106710592 bohr
     new conv_thr            =       0.0000000010 Ry


ATOMIC_POSITIONS (crystal)
C                0.0000000000        0.5000000000        0.3282084325
C                0.5000000000        0.0000000000        0.6717915425
O                0.0000000000        0.5000000000        0.6251027921
O                0.5000000000        0.0000000000        0.3748972079
N                0.1462333903        0.6462333383        0.1794194010
N                0.8537665777        0.3537666617        0.1794194010
N                0.6462333383        0.8537665777        0.8205806120
N                0.3537666617        0.1462333903        0.8205806120
H                0.2599935564        0.7599935354        0.2851158186
H                0.7400064226        0.2400064436        0.2851158186
H                0.7599935354        0.7400064226        0.7148841564
H                0.2400064436        0.2599935564        0.7148841564
H                0.1374525116        0.6374525226        0.9571506760
H                0.8625474774        0.3625474774        0.9571506760
H                0.6374525226        0.8625474774        0.0428493270
H                0.3625474774        0.1374525116        0.0428493270



     Writing config-only to output data dir /tmp/ceresoli/urea.save/ :
     XML data file
     NEW-OLD atomic charge density approx. for the potential

     total cpu time spent up to now is       26.9 secs

     Self-consistent Calculation

     iteration #  1     ecut=    90.00 Ry     beta= 0.20
     Davidson diagonalization with overlap
     ethr =  1.00E-06,  avg # of iterations =  4.7

     total cpu time spent up to now is       27.3 secs

     total energy              =    -133.97371922 Ry
     estimated scf accuracy    <       0.00019847 Ry

     iteration #  2     ecut=    90.00 Ry     beta= 0.20
     Davidson diagonalization with overlap
     ethr =  4.51E-07,  avg # of iterations =  1.5

     total cpu time spent up to now is       27.5 secs

     total energy              =    -133.97367858 Ry
     estimated scf accuracy    <       0.00010219 Ry

     iteration #  3     ecut=    90.00 Ry     beta= 0.20
     Davidson diagonalization with overlap
     ethr =  2.32E-07,  avg # of iterations =  3.3

     total cpu time spent up to now is       27.8 secs

     total energy              =    -133.97370575 Ry
     estimated scf accuracy    <       0.00001845 Ry

     iteration #  4     ecut=    90.00 Ry     beta= 0.20
     Davidson diagonalization with overlap
     ethr =  4.19E-08,  avg # of iterations =  4.7

     total cpu time spent up to now is       28.1 secs

     total energy              =    -133.97370384 Ry
     estimated scf accuracy    <       0.00002939 Ry

     iteration #  5     ecut=    90.00 Ry     beta= 0.20
     Davidson diagonalization with overlap
     ethr =  4.19E-08,  avg # of iterations =  1.0

     total cpu time spent up to now is       28.3 secs

     total energy              =    -133.97369828 Ry
     estimated scf accuracy    <       0.00001794 Ry

     iteration #  6     ecut=    90.00 Ry     beta= 0.20
     Davidson diagonalization with overlap
     ethr =  4.08E-08,  avg # of iterations =  2.5

     total cpu time spent up to now is       28.5 secs

     total energy              =    -133.97370042 Ry
     estimated scf accuracy    <       0.00000247 Ry

     iteration #  7     ecut=    90.00 Ry     beta= 0.20
     Davidson diagonalization with overlap
     ethr =  5.62E-09,  avg # of iterations =  4.8

     total cpu time spent up to now is       28.8 secs

     total energy              =    -133.97370029 Ry
     estimated scf accuracy    <       0.00000247 Ry

     iteration #  8     ecut=    90.00 Ry     beta= 0.20
     Davidson diagonalization with overlap
     ethr =  5.61E-09,  avg # of iterations =  3.3

     total cpu time spent up to now is       29.0 secs

     total energy              =    -133.97370026 Ry
     estimated scf accuracy    <       0.00000116 Ry

     iteration #  9     ecut=    90.00 Ry     beta= 0.20
     Davidson diagonalization with overlap
     ethr =  2.63E-09,  avg # of iterations =  2.0

     total cpu time spent up to now is       29.2 secs

     total energy              =    -133.97370032 Ry
     estimated scf accuracy    <       0.00000046 Ry

     iteration # 10     ecut=    90.00 Ry     beta= 0.20
     Davidson diagonalization with overlap
     ethr =  1.04E-09,  avg # of iterations =  2.5

     total cpu time spent up to now is       29.4 secs

     total energy              =    -133.97370031 Ry
     estimated scf accuracy    <       0.00000047 Ry

     iteration # 11     ecut=    90.00 Ry     beta= 0.20
     Davidson diagonalization with overlap
     ethr =  1.04E-09,  avg # of iterations =  1.0

     total cpu time spent up to now is       29.6 secs

     total energy              =    -133.97370033 Ry
     estimated scf accuracy    <       0.00000034 Ry

     iteration # 12     ecut=    90.00 Ry     beta= 0.20
     Davidson diagonalization with overlap
     ethr =  7.71E-10,  avg # of iterations =  1.2

     total cpu time spent up to now is       29.8 secs

     total energy              =    -133.97370028 Ry
     estimated scf accuracy    <       0.00000038 Ry

     iteration # 13     ecut=    90.00 Ry     beta= 0.20
     Davidson diagonalization with overlap
     ethr =  7.71E-10,  avg # of iterations =  2.3

     total cpu time spent up to now is       30.1 secs

     total energy              =    -133.97370027 Ry
     estimated scf accuracy    <       0.00000021 Ry

     iteration # 14     ecut=    90.00 Ry     beta= 0.20
     Davidson diagonalization with overlap
     ethr =  4.69E-10,  avg # of iterations =  3.3

     total cpu time spent up to now is       30.3 secs

     total energy              =    -133.97370027 Ry
     estimated scf accuracy    <       0.00000013 Ry

     iteration # 15     ecut=    90.00 Ry     beta= 0.20
     Davidson diagonalization with overlap
     ethr =  2.99E-10,  avg # of iterations =  2.0

     total cpu time spent up to now is       30.5 secs

     total energy              =    -133.97370025 Ry
     estimated scf accuracy    <       0.00000009 Ry

     iteration # 16     ecut=    90.00 Ry     beta= 0.20
     Davidson diagonalization with overlap
     ethr =  1.98E-10,  avg # of iterations =  4.8

     total cpu time spent up to now is       30.8 secs

     total energy              =    -133.97370026 Ry
     estimated scf accuracy    <       0.00000002 Ry

     iteration # 17     ecut=    90.00 Ry     beta= 0.20
     Davidson diagonalization with overlap
     ethr =  4.79E-11,  avg # of iterations =  2.2

     total cpu time spent up to now is       31.0 secs

     total energy              =    -133.97370026 Ry
     estimated scf accuracy    <       0.00000001 Ry

     iteration # 18     ecut=    90.00 Ry     beta= 0.20
     Davidson diagonalization with overlap
     ethr =  3.24E-11,  avg # of iterations =  4.2

     total cpu time spent up to now is       31.3 secs

     total energy              =    -133.97370026 Ry
     estimated scf accuracy    <          1.1E-09 Ry

     iteration # 19     ecut=    90.00 Ry     beta= 0.20
     Davidson diagonalization with overlap
     ethr =  2.51E-12,  avg # of iterations =  5.7

     total cpu time spent up to now is       31.5 secs

     End of self-consistent calculation

          k = 0.0000 0.0000 0.0000 ( 14623 PWs)   bands (ev):

   -17.9605 -17.6789 -15.3284 -15.3284 -11.2726 -11.0784  -8.7160  -8.1302
    -7.1224  -6.7495  -6.7495  -6.3738  -5.7268  -5.7268  -3.5823  -3.5823
    -0.8404  -0.7605  -0.1493   0.1642   0.9315   0.9315

          k = 0.0000 0.0000 0.4005 ( 14687 PWs)   bands (ev):

   -17.8489 -17.7010 -15.3052 -15.3052 -11.8010 -11.4148  -8.7370  -7.9657
    -6.9809  -6.9809  -6.0222  -5.6852  -5.6852  -5.5747  -3.5781  -3.5781
    -1.5361  -1.0974  -0.6804   0.0229   1.1809   1.1809

          k = 0.0000 0.3333 0.0000 ( 14674 PWs)   bands (ev):

   -17.8910 -17.7501 -15.3322 -15.3317 -11.2050 -11.1083  -8.5758  -8.2584
    -7.2527  -6.9547  -6.7222  -6.6842  -5.3632  -5.2838  -3.7193  -3.7086
    -0.6013  -0.5352  -0.2844  -0.0442   1.0141   1.0242

          k = 0.0000 0.3333 0.4005 ( 14700 PWs)   bands (ev):

   -17.8086 -17.7344 -15.3168 -15.3160 -11.6853 -11.4893  -8.6212  -8.2430
    -6.9842  -6.9831  -6.0779  -5.9711  -5.4049  -5.2684  -3.6762  -3.6486
    -1.3397  -1.1169  -0.4303  -0.0702   1.0498   1.0649

          k = 0.3333 0.3333 0.0000 ( 14745 PWs)   bands (ev):

   -17.8525 -17.7818 -15.3406 -15.3380 -11.1819 -11.1326  -8.5440  -8.3943
    -7.0753  -6.7650  -6.7444  -6.6308  -5.7294  -5.3193  -3.7645  -3.6876
    -0.5297  -0.3651  -0.2950  -0.0317   1.0031   1.0929

          k = 0.3333 0.3333 0.4005 ( 14669 PWs)   bands (ev):

   -17.7869 -17.7496 -15.3221 -15.3167 -11.6614 -11.5590  -8.4832  -8.2749
    -7.0054  -6.9963  -6.0162  -5.7880  -5.7012  -5.3324  -3.6848  -3.6321
    -1.3338  -1.2063  -0.2327  -0.0407   1.0095   1.1589

     highest occupied level (ev):     1.1809

!    total energy              =    -133.97370026 Ry
     estimated scf accuracy    <          5.2E-10 Ry

     The total energy is the sum of the following terms:
     one-electron contribution =     -88.65888113 Ry
     hartree contribution      =      58.90470529 Ry
     xc contribution           =     -39.51446428 Ry
     ewald contribution        =     -64.64319317 Ry
     Dispersion Correction     =      -0.06186698 Ry

     convergence has been achieved in  19 iterations

     Forces acting on atoms (cartesian axes, Ry/au):

     atom    1 type  1   force =     0.00000000    0.00000000   -0.00047340
     atom    2 type  1   force =     0.00000000    0.00000000    0.00047340
     atom    3 type  2   force =     0.00000000    0.00000000   -0.00445887
     atom    4 type  2   force =     0.00000000    0.00000000    0.00445887
     atom    5 type  3   force =     0.00041230    0.00041230   -0.00052591
     atom    6 type  3   force =    -0.00041230   -0.00041230   -0.00052591
     atom    7 type  3   force =     0.00041230   -0.00041230    0.00052591
     atom    8 type  3   force =    -0.00041230    0.00041230    0.00052591
     atom    9 type  4   force =     0.00307812    0.00307812   -0.00821220
     atom   10 type  4   force =    -0.00307812   -0.00307812   -0.00821220
     atom   11 type  4   force =     0.00307812   -0.00307812    0.00821220
     atom   12 type  4   force =    -0.00307812    0.00307812    0.00821220
     atom   13 type  4   force =     0.00008267    0.00008267   -0.00074979
     atom   14 type  4   force =    -0.00008267   -0.00008267   -0.00074979
     atom   15 type  4   force =     0.00008267   -0.00008267    0.00074979
     atom   16 type  4   force =    -0.00008267    0.00008267    0.00074979

     Total force =     0.019762     Total SCF correction =     0.000033
     Energy error            =      5.5E-04 Ry
     Gradient error          =      8.2E-03 Ry/Bohr

     number of scf cycles    =   6
     number of bfgs steps    =   5

     energy             old  =    -133.9731527117 Ry
     energy             new  =    -133.9737002599 Ry

     CASE: energy            _new < energy            _old

     new trust radius        =       0.0117381651 bohr
     new conv_thr            =       0.0000000005 Ry


ATOMIC_POSITIONS (crystal)
C                0.0000000000        0.5000000000        0.3280908723
C                0.5000000000        0.0000000000        0.6719091027
O                0.0000000000        0.5000000000        0.6245452195
O                0.5000000000        0.0000000000        0.3754547805
N                0.1463061145        0.6463060625        0.1792162669
N                0.8536938535        0.3536939375        0.1792162669
N                0.6463060625        0.8536938535        0.8207837461
N                0.3536939375        0.1463061145        0.8207837461
H                0.2603511370        0.7603511160        0.2839459206
H                0.7396488420        0.2396488630        0.2839459206
H                0.7603511160        0.7396488420        0.7160540544
H                0.2396488630        0.2603511370        0.7160540544
H                0.1374645566        0.6374645676        0.9572117098
H                0.8625354324        0.3625354324        0.9572117098
H                0.6374645676        0.8625354324        0.0427882932
H                0.3625354324        0.1374645566        0.0427882932



     Writing config-only to output data dir /tmp/ceresoli/urea.save/ :
     XML data file
     NEW-OLD atomic charge density approx. for the potential

     total cpu time spent up to now is       31.7 secs

     Self-consistent Calculation

     iteration #  1     ecut=    90.00 Ry     beta= 0.20
     Davidson diagonalization with overlap
     ethr =  1.00E-06,  avg # of iterations =  3.0

     total cpu time spent up to now is       32.1 secs

     total energy              =    -133.97416207 Ry
     estimated scf accuracy    <       0.00017740 Ry

     iteration #  2     ecut=    90.00 Ry     beta= 0.20
     Davidson diagonalization with overlap
     ethr =  4.03E-07,  avg # of iterations =  1.8

     total cpu time spent up to now is       32.3 secs

     total energy              =    -133.97412682 Ry
     estimated scf accuracy    <       0.00009360 Ry

     iteration #  3     ecut=    90.00 Ry     beta= 0.20
     Davidson diagonalization with overlap
     ethr =  2.13E-07,  avg # of iterations =  2.0

     total cpu time spent up to now is       32.6 secs

     total energy              =    -133.97414416 Ry
     estimated scf accuracy    <       0.00000969 Ry

     iteration #  4     ecut=    90.00 Ry     beta= 0.20
     Davidson diagonalization with overlap
     ethr =  2.20E-08,  avg # of iterations =  5.8

     total cpu time spent up to now is       32.8 secs

     total energy              =    -133.97414283 Ry
     estimated scf accuracy    <       0.00000733 Ry

     iteration #  5     ecut=    90.00 Ry     beta= 0.20
     Davidson diagonalization with overlap
     ethr =  1.67E-08,  avg # of iterations =  3.8

     total cpu time spent up to now is       33.1 secs

     total energy              =    -133.97414398 Ry
     estimated scf accuracy    <       0.00000460 Ry

     iteration #  6     ecut=    90.00 Ry     beta= 0.20
     Davidson diagonalization with overlap
     ethr =  1.05E-08,  avg # of iterations =  2.2

     total cpu time spent up to now is       33.4 secs

     total energy              =    -133.97414441 Ry
     estimated scf accuracy    <       0.00000045 Ry

     iteration #  7     ecut=    90.00 Ry     beta= 0.20
     Davidson diagonalization with overlap
     ethr =  1.03E-09,  avg # of iterations =  6.2

     total cpu time spent up to now is       33.8 secs

     total energy              =    -133.97414439 Ry
     estimated scf accuracy    <       0.00000180 Ry

     iteration #  8     ecut=    90.00 Ry     beta= 0.20
     Davidson diagonalization with overlap
     ethr =  1.03E-09,  avg # of iterations =  4.2

     total cpu time spent up to now is       34.1 secs

     total energy              =    -133.97414457 Ry
     estimated scf accuracy    <       0.00000011 Ry

     iteration #  9     ecut=    90.00 Ry     beta= 0.20
     Davidson diagonalization with overlap
     ethr =  2.41E-10,  avg # of iterations =  4.5

     total cpu time spent up to now is       34.4 secs

     total energy              =    -133.97414462 Ry
     estimated scf accuracy    <          9.8E-09 Ry

     iteration # 10     ecut=    90.00 Ry     beta= 0.20
     Davidson diagonalization with overlap
     ethr =  2.22E-11,  avg # of iterations =  7.0

     total cpu time spent up to now is       34.8 secs

     total energy              =    -133.97414461 Ry
     estimated scf accuracy    <       0.00000002 Ry

     iteration # 11     ecut=    90.00 Ry     beta= 0.20
     Davidson diagonalization with overlap
     ethr =  2.22E-11,  avg # of iterations =  5.0

     total cpu time spent up to now is       35.1 secs

     total energy              =    -133.97414461 Ry
     estimated scf accuracy    <          8.9E-10 Ry

     iteration # 12     ecut=    90.00 Ry     beta= 0.20
     Davidson diagonalization with overlap
     ethr =  2.02E-12,  avg # of iterations =  3.7

     total cpu time spent up to now is       35.4 secs

     total energy              =    -133.97414461 Ry
     estimated scf accuracy    <          1.1E-09 Ry

     iteration # 13     ecut=    90.00 Ry     beta= 0.20
     Davidson diagonalization with overlap
     ethr =  2.02E-12,  avg # of iterations =  3.0

     total cpu time spent up to now is       35.6 secs

     End of self-consistent calculation

          k = 0.0000 0.0000 0.0000 ( 14623 PWs)   bands (ev):

   -17.9586 -17.6762 -15.3294 -15.3294 -11.2913 -11.0975  -8.7217  -8.1347
    -7.1202  -6.7550  -6.7550  -6.3628  -5.7332  -5.7332  -3.5827  -3.5827
    -0.8429  -0.7692  -0.1516   0.1635   0.9341   0.9341

          k = 0.0000 0.0000 0.4005 ( 14687 PWs)   bands (ev):

   -17.8469 -17.6983 -15.3062 -15.3062 -11.8169 -11.4287  -8.7457  -7.9699
    -6.9849  -6.9849  -6.0221  -5.6928  -5.6928  -5.5735  -3.5784  -3.5784
    -1.5393  -1.0953  -0.6833   0.0227   1.1767   1.1767

          k = 0.0000 0.3333 0.0000 ( 14674 PWs)   bands (ev):

   -17.8889 -17.7476 -15.3332 -15.3326 -11.2241 -11.1275  -8.5813  -8.2636
    -7.2501  -6.9530  -6.7260  -6.6845  -5.3698  -5.2889  -3.7194  -3.7086
    -0.6076  -0.5371  -0.2876  -0.0451   1.0175   1.0274

          k = 0.0000 0.3333 0.4005 ( 14700 PWs)   bands (ev):

   -17.8064 -17.7318 -15.3179 -15.3171 -11.7011 -11.5041  -8.6280  -8.2476
    -6.9882  -6.9871  -6.0793  -5.9737  -5.4119  -5.2738  -3.6760  -3.6485
    -1.3409  -1.1155  -0.4327  -0.0711   1.0459   1.0610

          k = 0.3333 0.3333 0.0000 ( 14745 PWs)   bands (ev):

   -17.8503 -17.7794 -15.3416 -15.3390 -11.2009 -11.1518  -8.5495  -8.3994
    -7.0727  -6.7705  -6.7456  -6.6254  -5.7355  -5.3251  -3.7646  -3.6882
    -0.5354  -0.3696  -0.2966  -0.0329   1.0071   1.0967

          k = 0.3333 0.3333 0.4005 ( 14669 PWs)   bands (ev):

   -17.7846 -17.7472 -15.3232 -15.3178 -11.6768 -11.5740  -8.4897  -8.2806
    -7.0092  -7.0001  -6.0182  -5.7877  -5.7087  -5.3383  -3.6847  -3.6325
    -1.3346  -1.2057  -0.2346  -0.0419   1.0053   1.1544

     highest occupied level (ev):     1.1767

!    total energy              =    -133.97414461 Ry
     estimated scf accuracy    <          1.0E-10 Ry

     The total energy is the sum of the following terms:
     one-electron contribution =     -88.68209882 Ry
     hartree contribution      =      58.91399216 Ry
     xc contribution           =     -39.51896696 Ry
     ewald contribution        =     -64.62518968 Ry
     Dispersion Correction     =      -0.06188132 Ry

     convergence has been achieved in  13 iterations

     Forces acting on atoms (cartesian axes, Ry/au):

     atom    1 type  1   force =     0.00000000    0.00000000   -0.00277390
     atom    2 type  1   force =     0.00000000    0.00000000    0.00277390
     atom    3 type  2   force =     0.00000000    0.00000000   -0.00171083
     atom    4 type  2   force =     0.00000000    0.00000000    0.00171083
     atom    5 type  3   force =    -0.00016818   -0.00016818   -0.00041968
     atom    6 type  3   force =     0.00016818    0.00016818   -0.00041968
     atom    7 type  3   force =    -0.00016818    0.00016818    0.00041968
     atom    8 type  3   force =     0.00016818   -0.00016818    0.00041968
     atom    9 type  4   force =     0.00290335    0.00290335   -0.00703184
     atom   10 type  4   force =    -0.00290335   -0.00290335   -0.00703184
     atom   11 type  4   force =     0.00290335   -0.00290335    0.00703184
     atom   12 type  4   force =    -0.00290335    0.00290335    0.00703184
     atom   13 type  4   force =    -0.00011175   -0.00011175   -0.00203425
     atom   14 type  4   force =     0.00011175    0.00011175   -0.00203425
     atom   15 type  4   force =    -0.00011175    0.00011175    0.00203425
     atom   16 type  4   force =     0.00011175   -0.00011175    0.00203425

     Total force =     0.017437     Total SCF correction =     0.000015
     Energy error            =      4.4E-04 Ry
     Gradient error          =      7.0E-03 Ry/Bohr

     number of scf cycles    =   7
     number of bfgs steps    =   6

     energy             old  =    -133.9737002599 Ry
     energy             new  =    -133.9741446145 Ry

     CASE: energy            _new < energy            _old

     new trust radius        =       0.0176072476 bohr
     new conv_thr            =       0.0000000004 Ry


ATOMIC_POSITIONS (crystal)
C                0.0000000000        0.5000000000        0.3278067129
C                0.5000000000        0.0000000000        0.6721932621
O                0.0000000000        0.5000000000        0.6239152446
O                0.5000000000        0.0000000000        0.3760847554
N                0.1463864375        0.6463863855        0.1788496548
N                0.8536135305        0.3536136145        0.1788496548
N                0.6463863855        0.8536135305        0.8211503582
N                0.3536136145        0.1463864375        0.8211503582
H                0.2609151692        0.7609151482        0.2822162906
H                0.7390848098        0.2390848308        0.2822162906
H                0.7609151482        0.7390848098        0.7177836844
H                0.2390848308        0.2609151692        0.7177836844
H                0.1374661758        0.6374661868        0.9571036595
H                0.8625338132        0.3625338132        0.9571036595
H                0.6374661868        0.8625338132        0.0428963435
H                0.3625338132        0.1374661758        0.0428963435



     Writing config-only to output data dir /tmp/ceresoli/urea.save/ :
     XML data file
     NEW-OLD atomic charge density approx. for the potential

     total cpu time spent up to now is       35.7 secs

     Self-consistent Calculation

     iteration #  1     ecut=    90.00 Ry     beta= 0.20
     Davidson diagonalization with overlap
     ethr =  1.00E-06,  avg # of iterations =  3.5

     total cpu time spent up to now is       36.2 secs

     total energy              =    -133.97474234 Ry
     estimated scf accuracy    <       0.00039649 Ry

     iteration #  2     ecut=    90.00 Ry     beta= 0.20
     Davidson diagonalization with overlap
     ethr =  9.01E-07,  avg # of iterations =  1.0

     total cpu time spent up to now is       36.4 secs

     total energy              =    -133.97465939 Ry
     estimated scf accuracy    <       0.00020645 Ry

     iteration #  3     ecut=    90.00 Ry     beta= 0.20
     Davidson diagonalization with overlap
     ethr =  4.69E-07,  avg # of iterations =  2.0

     total cpu time spent up to now is       36.7 secs

     total energy              =    -133.97469934 Ry
     estimated scf accuracy    <       0.00002252 Ry

     iteration #  4     ecut=    90.00 Ry     beta= 0.20
     Davidson diagonalization with overlap
     ethr =  5.12E-08,  avg # of iterations =  3.7

     total cpu time spent up to now is       37.0 secs

     total energy              =    -133.97469380 Ry
     estimated scf accuracy    <       0.00001740 Ry

     iteration #  5     ecut=    90.00 Ry     beta= 0.20
     Davidson diagonalization with overlap
     ethr =  3.95E-08,  avg # of iterations =  3.3

     total cpu time spent up to now is       37.3 secs

     total energy              =    -133.97469782 Ry
     estimated scf accuracy    <       0.00000673 Ry

     iteration #  6     ecut=    90.00 Ry     beta= 0.20
     Davidson diagonalization with overlap
     ethr =  1.53E-08,  avg # of iterations =  1.2

     total cpu time spent up to now is       37.5 secs

     total energy              =    -133.97469694 Ry
     estimated scf accuracy    <       0.00000191 Ry

     iteration #  7     ecut=    90.00 Ry     beta= 0.20
     Davidson diagonalization with overlap
     ethr =  4.33E-09,  avg # of iterations =  6.2

     total cpu time spent up to now is       37.8 secs

     total energy              =    -133.97469805 Ry
     estimated scf accuracy    <       0.00000183 Ry

     iteration #  8     ecut=    90.00 Ry     beta= 0.20
     Davidson diagonalization with overlap
     ethr =  4.16E-09,  avg # of iterations =  1.3

     total cpu time spent up to now is       38.1 secs

     total energy              =    -133.97469766 Ry
     estimated scf accuracy    <       0.00000075 Ry

     iteration #  9     ecut=    90.00 Ry     beta= 0.20
     Davidson diagonalization with overlap
     ethr =  1.70E-09,  avg # of iterations =  5.8

     total cpu time spent up to now is       38.4 secs

     total energy              =    -133.97469801 Ry
     estimated scf accuracy    <       0.00000019 Ry

     iteration # 10     ecut=    90.00 Ry     beta= 0.20
     Davidson diagonalization with overlap
     ethr =  4.42E-10,  avg # of iterations =  1.0

     total cpu time spent up to now is       38.6 secs

     total energy              =    -133.97469793 Ry
     estimated scf accuracy    <       0.00000012 Ry

     iteration # 11     ecut=    90.00 Ry     beta= 0.20
     Davidson diagonalization with overlap
     ethr =  2.77E-10,  avg # of iterations =  4.8

     total cpu time spent up to now is       38.9 secs

     total energy              =    -133.97469798 Ry
     estimated scf accuracy    <       0.00000004 Ry

     iteration # 12     ecut=    90.00 Ry     beta= 0.20
     Davidson diagonalization with overlap
     ethr =  8.36E-11,  avg # of iterations =  4.3

     total cpu time spent up to now is       39.2 secs

     total energy              =    -133.97469798 Ry
     estimated scf accuracy    <          6.2E-09 Ry

     iteration # 13     ecut=    90.00 Ry     beta= 0.20
     Davidson diagonalization with overlap
     ethr =  1.41E-11,  avg # of iterations =  6.8

     total cpu time spent up to now is       39.5 secs

     total energy              =    -133.97469798 Ry
     estimated scf accuracy    <          2.0E-09 Ry

     iteration # 14     ecut=    90.00 Ry     beta= 0.20
     Davidson diagonalization with overlap
     ethr =  4.45E-12,  avg # of iterations =  4.0

     total cpu time spent up to now is       39.8 secs

     End of self-consistent calculation

          k = 0.0000 0.0000 0.0000 ( 14623 PWs)   bands (ev):

   -17.9546 -17.6711 -15.3275 -15.3275 -11.3079 -11.1144  -8.7290  -8.1370
    -7.1193  -6.7601  -6.7601  -6.3455  -5.7378  -5.7378  -3.5817  -3.5817
    -0.8453  -0.7791  -0.1510   0.1639   0.9364   0.9364

          k = 0.0000 0.0000 0.4005 ( 14687 PWs)   bands (ev):

   -17.8428 -17.6933 -15.3044 -15.3044 -11.8318 -11.4407  -8.7553  -7.9718
    -6.9877  -6.9877  -6.0190  -5.6995  -5.6995  -5.5671  -3.5775  -3.5775
    -1.5452  -1.0928  -0.6866   0.0239   1.1723   1.1723

          k = 0.0000 0.3333 0.0000 ( 14674 PWs)   bands (ev):

   -17.8847 -17.7428 -15.3313 -15.3308 -11.2410 -11.1447  -8.5878  -8.2675
    -7.2484  -6.9509  -6.7281  -6.6811  -5.3742  -5.2908  -3.7182  -3.7072
    -0.6141  -0.5387  -0.2891  -0.0452   1.0209   1.0306

          k = 0.0000 0.3333 0.4005 ( 14700 PWs)   bands (ev):

   -17.8020 -17.7270 -15.3161 -15.3153 -11.7156 -11.5172  -8.6350  -8.2507
    -6.9911  -6.9898  -6.0782  -5.9740  -5.4168  -5.2760  -3.6747  -3.6472
    -1.3438  -1.1142  -0.4349  -0.0710   1.0414   1.0566

          k = 0.3333 0.3333 0.0000 ( 14745 PWs)   bands (ev):

   -17.8459 -17.7747 -15.3397 -15.3371 -11.2178 -11.1688  -8.5556  -8.4043
    -7.0702  -6.7755  -6.7449  -6.6162  -5.7398  -5.3282  -3.7634  -3.6876
    -0.5409  -0.3727  -0.2979  -0.0334   1.0112   1.1001

          k = 0.3333 0.3333 0.4005 ( 14669 PWs)   bands (ev):

   -17.7801 -17.7424 -15.3214 -15.3160 -11.6909 -11.5876  -8.4958  -8.2852
    -7.0118  -7.0028  -6.0179  -5.7833  -5.7154  -5.3416  -3.6833  -3.6317
    -1.3367  -1.2058  -0.2363  -0.0422   1.0005   1.1496

     highest occupied level (ev):     1.1723

!    total energy              =    -133.97469798 Ry
     estimated scf accuracy    <          1.9E-10 Ry

     The total energy is the sum of the following terms:
     one-electron contribution =     -88.67515509 Ry
     hartree contribution      =      58.90863515 Ry
     xc contribution           =     -39.52096559 Ry
     ewald contribution        =     -64.62529349 Ry
     Dispersion Correction     =      -0.06191896 Ry

     convergence has been achieved in  14 iterations

     Forces acting on atoms (cartesian axes, Ry/au):

     atom    1 type  1   force =     0.00000000    0.00000000   -0.00439545
     atom    2 type  1   force =     0.00000000    0.00000000    0.00439545
     atom    3 type  2   force =     0.00000000    0.00000000    0.00046693
     atom    4 type  2   force =     0.00000000    0.00000000   -0.00046693
     atom    5 type  3   force =    -0.00037472   -0.00037472   -0.00047056
     atom    6 type  3   force =     0.00037472    0.00037472   -0.00047056
     atom    7 type  3   force =    -0.00037472    0.00037472    0.00047056
     atom    8 type  3   force =     0.00037472   -0.00037472    0.00047056
     atom    9 type  4   force =     0.00220482    0.00220482   -0.00565083
     atom   10 type  4   force =    -0.00220482   -0.00220482   -0.00565083
     atom   11 type  4   force =     0.00220482   -0.00220482    0.00565083
     atom   12 type  4   force =    -0.00220482    0.00220482    0.00565083
     atom   13 type  4   force =    -0.00040712   -0.00040712   -0.00329540
     atom   14 type  4   force =     0.00040712    0.00040712   -0.00329540
     atom   15 type  4   force =    -0.00040712    0.00040712    0.00329540
     atom   16 type  4   force =     0.00040712   -0.00040712    0.00329540

     Total force =     0.015889     Total SCF correction =     0.000016
     Energy error            =      5.5E-04 Ry
     Gradient error          =      5.7E-03 Ry/Bohr

     number of scf cycles    =   8
     number of bfgs steps    =   7

     energy             old  =    -133.9741446145 Ry
     energy             new  =    -133.9746979820 Ry

     CASE: energy            _new < energy            _old

     new trust radius        =       0.0264108714 bohr
     new conv_thr            =       0.0000000006 Ry


ATOMIC_POSITIONS (crystal)
C                0.0000000000        0.5000000000        0.3272621315
C                0.5000000000        0.0000000000        0.6727378435
O                0.0000000000        0.5000000000        0.6231280582
O                0.5000000000        0.0000000000        0.3768719418
N                0.1465176069        0.6465175549        0.1782158944
N                0.8534823611        0.3534824451        0.1782158944
N                0.6465175549        0.8534823611        0.8217841186
N                0.3534824451        0.1465176069        0.8217841186
H                0.2617406986        0.7617406776        0.2796028338
H                0.7382592804        0.2382593014        0.2796028338
H                0.7617406776        0.7382592804        0.7203971412
H                0.2382593014        0.2617406986        0.7203971412
H                0.1374301698        0.6374301808        0.9566850032
H                0.8625698192        0.3625698192        0.9566850032
H                0.6374301808        0.8625698192        0.0433149998
H                0.3625698192        0.1374301698        0.0433149998



     Writing config-only to output data dir /tmp/ceresoli/urea.save/ :
     XML data file
     NEW-OLD atomic charge density approx. for the potential

     total cpu time spent up to now is       39.9 secs

     Self-consistent Calculation

     iteration #  1     ecut=    90.00 Ry     beta= 0.20
     Davidson diagonalization with overlap
     ethr =  1.00E-06,  avg # of iterations =  4.0

     total cpu time spent up to now is       40.4 secs

     total energy              =    -133.97545211 Ry
     estimated scf accuracy    <       0.00095453 Ry

     iteration #  2     ecut=    90.00 Ry     beta= 0.20
     Davidson diagonalization with overlap
     ethr =  2.17E-06,  avg # of iterations =  1.0

     total cpu time spent up to now is       40.7 secs

     total energy              =    -133.97526473 Ry
     estimated scf accuracy    <       0.00047765 Ry

     iteration #  3     ecut=    90.00 Ry     beta= 0.20
     Davidson diagonalization with overlap
     ethr =  1.09E-06,  avg # of iterations =  2.0

     total cpu time spent up to now is       40.9 secs

     total energy              =    -133.97534892 Ry
     estimated scf accuracy    <       0.00005381 Ry

     iteration #  4     ecut=    90.00 Ry     beta= 0.20
     Davidson diagonalization with overlap
     ethr =  1.22E-07,  avg # of iterations =  1.8

     total cpu time spent up to now is       41.1 secs

     total energy              =    -133.97534496 Ry
     estimated scf accuracy    <       0.00002567 Ry

     iteration #  5     ecut=    90.00 Ry     beta= 0.20
     Davidson diagonalization with overlap
     ethr =  5.83E-08,  avg # of iterations =  3.0

     total cpu time spent up to now is       41.5 secs

     total energy              =    -133.97535170 Ry
     estimated scf accuracy    <       0.00001846 Ry

     iteration #  6     ecut=    90.00 Ry     beta= 0.20
     Davidson diagonalization with overlap
     ethr =  4.19E-08,  avg # of iterations =  1.5

     total cpu time spent up to now is       41.7 secs

     total energy              =    -133.97534715 Ry
     estimated scf accuracy    <       0.00000903 Ry

     iteration #  7     ecut=    90.00 Ry     beta= 0.20
     Davidson diagonalization with overlap
     ethr =  2.05E-08,  avg # of iterations =  7.2

     total cpu time spent up to now is       42.0 secs

     total energy              =    -133.97535065 Ry
     estimated scf accuracy    <       0.00000408 Ry

     iteration #  8     ecut=    90.00 Ry     beta= 0.20
     Davidson diagonalization with overlap
     ethr =  9.28E-09,  avg # of iterations =  2.0

     total cpu time spent up to now is       42.3 secs

     total energy              =    -133.97535113 Ry
     estimated scf accuracy    <       0.00000237 Ry

     iteration #  9     ecut=    90.00 Ry     beta= 0.20
     Davidson diagonalization with overlap
     ethr =  5.39E-09,  avg # of iterations =  1.2

     total cpu time spent up to now is       42.5 secs

     total energy              =    -133.97535153 Ry
     estimated scf accuracy    <       0.00000183 Ry

     iteration # 10     ecut=    90.00 Ry     beta= 0.20
     Davidson diagonalization with overlap
     ethr =  4.15E-09,  avg # of iterations =  4.0

     total cpu time spent up to now is       42.8 secs

     total energy              =    -133.97535005 Ry
     estimated scf accuracy    <       0.00000418 Ry

     iteration # 11     ecut=    90.00 Ry     beta= 0.20
     Davidson diagonalization with overlap
     ethr =  4.15E-09,  avg # of iterations =  4.2

     total cpu time spent up to now is       43.1 secs

     total energy              =    -133.97535070 Ry
     estimated scf accuracy    <       0.00000058 Ry

     iteration # 12     ecut=    90.00 Ry     beta= 0.20
     Davidson diagonalization with overlap
     ethr =  1.32E-09,  avg # of iterations =  5.7

     total cpu time spent up to now is       43.5 secs

     total energy              =    -133.97535078 Ry
     estimated scf accuracy    <       0.00000057 Ry

     iteration # 13     ecut=    90.00 Ry     beta= 0.20
     Davidson diagonalization with overlap
     ethr =  1.29E-09,  avg # of iterations =  1.0

     total cpu time spent up to now is       43.7 secs

     total energy              =    -133.97535067 Ry
     estimated scf accuracy    <       0.00000038 Ry

     iteration # 14     ecut=    90.00 Ry     beta= 0.20
     Davidson diagonalization with overlap
     ethr =  8.53E-10,  avg # of iterations =  2.0

     total cpu time spent up to now is       43.9 secs

     total energy              =    -133.97535072 Ry
     estimated scf accuracy    <       0.00000015 Ry

     iteration # 15     ecut=    90.00 Ry     beta= 0.20
     Davidson diagonalization with overlap
     ethr =  3.30E-10,  avg # of iterations =  2.0

     total cpu time spent up to now is       44.2 secs

     total energy              =    -133.97535069 Ry
     estimated scf accuracy    <       0.00000019 Ry

     iteration # 16     ecut=    90.00 Ry     beta= 0.20
     Davidson diagonalization with overlap
     ethr =  3.30E-10,  avg # of iterations =  2.0

     total cpu time spent up to now is       44.4 secs

     total energy              =    -133.97535067 Ry
     estimated scf accuracy    <       0.00000013 Ry

     iteration # 17     ecut=    90.00 Ry     beta= 0.20
     Davidson diagonalization with overlap
     ethr =  2.88E-10,  avg # of iterations =  2.0

     total cpu time spent up to now is       44.7 secs

     total energy              =    -133.97535067 Ry
     estimated scf accuracy    <       0.00000003 Ry

     iteration # 18     ecut=    90.00 Ry     beta= 0.20
     Davidson diagonalization with overlap
     ethr =  7.66E-11,  avg # of iterations =  3.5

     total cpu time spent up to now is       45.0 secs

     total energy              =    -133.97535067 Ry
     estimated scf accuracy    <       0.00000003 Ry

     iteration # 19     ecut=    90.00 Ry     beta= 0.20
     Davidson diagonalization with overlap
     ethr =  5.96E-11,  avg # of iterations =  1.0

     total cpu time spent up to now is       45.2 secs

     total energy              =    -133.97535066 Ry
     estimated scf accuracy    <       0.00000002 Ry

     iteration # 20     ecut=    90.00 Ry     beta= 0.20
     Davidson diagonalization with overlap
     ethr =  3.97E-11,  avg # of iterations =  4.2

     total cpu time spent up to now is       45.5 secs

     total energy              =    -133.97535067 Ry
     estimated scf accuracy    <          2.0E-09 Ry

     iteration # 21     ecut=    90.00 Ry     beta= 0.20
     Davidson diagonalization with overlap
     ethr =  4.46E-12,  avg # of iterations =  5.5

     total cpu time spent up to now is       45.8 secs

     End of self-consistent calculation

          k = 0.0000 0.0000 0.0000 ( 14623 PWs)   bands (ev):

   -17.9459 -17.6607 -15.3223 -15.3223 -11.3225 -11.1289  -8.7386  -8.1392
    -7.1182  -6.7622  -6.7622  -6.3211  -5.7425  -5.7425  -3.5780  -3.5780
    -0.8484  -0.7903  -0.1475   0.1657   0.9378   0.9378

          k = 0.0000 0.0000 0.4005 ( 14687 PWs)   bands (ev):

   -17.8338 -17.6827 -15.2992 -15.2992 -11.8459 -11.4503  -8.7686  -7.9729
    -6.9867  -6.9867  -6.0103  -5.7078  -5.7078  -5.5539  -3.5738  -3.5738
    -1.5550  -1.0900  -0.6909   0.0270   1.1672   1.1672

          k = 0.0000 0.3333 0.0000 ( 14674 PWs)   bands (ev):

   -17.8756 -17.7328 -15.3261 -15.3255 -11.2560 -11.1596  -8.5959  -8.2717
    -7.2475  -6.9488  -6.7254  -6.6709  -5.3785  -5.2917  -3.7139  -3.7028
    -0.6212  -0.5404  -0.2890  -0.0445   1.0237   1.0332

          k = 0.0000 0.3333 0.4005 ( 14700 PWs)   bands (ev):

   -17.7927 -17.7168 -15.3109 -15.3102 -11.7290 -11.5284  -8.6445  -8.2542
    -6.9900  -6.9887  -6.0736  -5.9720  -5.4213  -5.2761  -3.6702  -3.6427
    -1.3494  -1.1135  -0.4375  -0.0698   1.0360   1.0514

          k = 0.3333 0.3333 0.0000 ( 14745 PWs)   bands (ev):

   -17.8366 -17.7649 -15.3346 -15.3319 -11.2325 -11.1836  -8.5634  -8.4101
    -7.0678  -6.7776  -6.7395  -6.6019  -5.7441  -5.3307  -3.7592  -3.6844
    -0.5462  -0.3746  -0.2990  -0.0333   1.0151   1.1027

          k = 0.3333 0.3333 0.4005 ( 14669 PWs)   bands (ev):

   -17.7705 -17.7324 -15.3164 -15.3109 -11.7038 -11.5994  -8.5038  -8.2907
    -7.0105  -7.0016  -6.0147  -5.7730  -5.7238  -5.3432  -3.6788  -3.6280
    -1.3410  -1.2071  -0.2380  -0.0419   0.9948   1.1440

     highest occupied level (ev):     1.1672

!    total energy              =    -133.97535067 Ry
     estimated scf accuracy    <          2.3E-10 Ry

     The total energy is the sum of the following terms:
     one-electron contribution =     -88.61151603 Ry
     hartree contribution      =      58.87522069 Ry
     xc contribution           =     -39.51935278 Ry
     ewald contribution        =     -64.65770456 Ry
     Dispersion Correction     =      -0.06199799 Ry

     convergence has been achieved in  21 iterations

     Forces acting on atoms (cartesian axes, Ry/au):

     atom    1 type  1   force =     0.00000000    0.00000000   -0.00527379
     atom    2 type  1   force =     0.00000000    0.00000000    0.00527379
     atom    3 type  2   force =     0.00000000    0.00000000    0.00190470
     atom    4 type  2   force =     0.00000000    0.00000000   -0.00190470
     atom    5 type  3   force =    -0.00095966   -0.00095966   -0.00125360
     atom    6 type  3   force =     0.00095966    0.00095966   -0.00125360
     atom    7 type  3   force =    -0.00095966    0.00095966    0.00125360
     atom    8 type  3   force =     0.00095966   -0.00095966    0.00125360
     atom    9 type  4   force =     0.00121972    0.00121972   -0.00360717
     atom   10 type  4   force =    -0.00121972   -0.00121972   -0.00360717
     atom   11 type  4   force =     0.00121972   -0.00121972    0.00360717
     atom   12 type  4   force =    -0.00121972    0.00121972    0.00360717
     atom   13 type  4   force =    -0.00077529   -0.00077529   -0.00429032
     atom   14 type  4   force =     0.00077529    0.00077529   -0.00429032
     atom   15 type  4   force =    -0.00077529    0.00077529    0.00429032
     atom   16 type  4   force =     0.00077529   -0.00077529    0.00429032

     Total force =     0.014796     Total SCF correction =     0.000020
     Energy error            =      6.5E-04 Ry
     Gradient error          =      5.3E-03 Ry/Bohr

     number of scf cycles    =   9
     number of bfgs steps    =   8

     energy             old  =    -133.9746979820 Ry
     energy             new  =    -133.9753506694 Ry

     CASE: energy            _new < energy            _old

     new trust radius        =       0.0396163072 bohr
     new conv_thr            =       0.0000000005 Ry


ATOMIC_POSITIONS (crystal)
C                0.0000000000        0.5000000000        0.3262848043
C                0.5000000000        0.0000000000        0.6737151707
O                0.0000000000        0.5000000000        0.6220188481
O                0.5000000000        0.0000000000        0.3779811519
N                0.1466387967        0.6466387447        0.1770004323
N                0.8533611713        0.3533612553        0.1770004323
N                0.6466387447        0.8533611713        0.8229995807
N                0.3533612553        0.1466387967        0.8229995807
H                0.2629467189        0.7629466979        0.2756537100
H                0.7370532601        0.2370532811        0.2756537100
H                0.7629466979        0.7370532601        0.7243462650
H                0.2370532811        0.2629467189        0.7243462650
H                0.1373019237        0.6373019347        0.9556922040
H                0.8626980653        0.3626980653        0.9556922040
H                0.6373019347        0.8626980653        0.0443077990
H                0.3626980653        0.1373019237        0.0443077990



     Writing config-only to output data dir /tmp/ceresoli/urea.save/ :
     XML data file
     NEW-OLD atomic charge density approx. for the potential

     total cpu time spent up to now is       45.9 secs

     Self-consistent Calculation

     iteration #  1     ecut=    90.00 Ry     beta= 0.20
     Davidson diagonalization with overlap
     ethr =  1.00E-06,  avg # of iterations =  5.3

     total cpu time spent up to now is       46.5 secs

     total energy              =    -133.97622354 Ry
     estimated scf accuracy    <       0.00238252 Ry

     iteration #  2     ecut=    90.00 Ry     beta= 0.20
     Davidson diagonalization with overlap
     ethr =  5.41E-06,  avg # of iterations =  1.0

     total cpu time spent up to now is       46.7 secs

     total energy              =    -133.97582280 Ry
     estimated scf accuracy    <       0.00111232 Ry

     iteration #  3     ecut=    90.00 Ry     beta= 0.20
     Davidson diagonalization with overlap
     ethr =  2.53E-06,  avg # of iterations =  2.0

     total cpu time spent up to now is       47.0 secs

     total energy              =    -133.97598671 Ry
     estimated scf accuracy    <       0.00012630 Ry

     iteration #  4     ecut=    90.00 Ry     beta= 0.20
     Davidson diagonalization with overlap
     ethr =  2.87E-07,  avg # of iterations =  2.0

     total cpu time spent up to now is       47.2 secs

     total energy              =    -133.97599806 Ry
     estimated scf accuracy    <       0.00002389 Ry

     iteration #  5     ecut=    90.00 Ry     beta= 0.20
     Davidson diagonalization with overlap
     ethr =  5.43E-08,  avg # of iterations =  4.0

     total cpu time spent up to now is       47.5 secs

     total energy              =    -133.97600035 Ry
     estimated scf accuracy    <       0.00001164 Ry

     iteration #  6     ecut=    90.00 Ry     beta= 0.20
     Davidson diagonalization with overlap
     ethr =  2.65E-08,  avg # of iterations =  3.3

     total cpu time spent up to now is       47.8 secs

     total energy              =    -133.97600042 Ry
     estimated scf accuracy    <       0.00000392 Ry

     iteration #  7     ecut=    90.00 Ry     beta= 0.20
     Davidson diagonalization with overlap
     ethr =  8.90E-09,  avg # of iterations =  3.5

     total cpu time spent up to now is       48.0 secs

     total energy              =    -133.97600102 Ry
     estimated scf accuracy    <       0.00000066 Ry

     iteration #  8     ecut=    90.00 Ry     beta= 0.20
     Davidson diagonalization with overlap
     ethr =  1.50E-09,  avg # of iterations =  5.3

     total cpu time spent up to now is       48.4 secs

     total energy              =    -133.97600110 Ry
     estimated scf accuracy    <       0.00000189 Ry

     iteration #  9     ecut=    90.00 Ry     beta= 0.20
     Davidson diagonalization with overlap
     ethr =  1.50E-09,  avg # of iterations =  2.0

     total cpu time spent up to now is       48.7 secs

     total energy              =    -133.97600084 Ry
     estimated scf accuracy    <       0.00000065 Ry

     iteration # 10     ecut=    90.00 Ry     beta= 0.20
     Davidson diagonalization with overlap
     ethr =  1.48E-09,  avg # of iterations =  4.3

     total cpu time spent up to now is       49.0 secs

     total energy              =    -133.97600105 Ry
     estimated scf accuracy    <       0.00000009 Ry

     iteration # 11     ecut=    90.00 Ry     beta= 0.20
     Davidson diagonalization with overlap
     ethr =  1.96E-10,  avg # of iterations =  3.7

     total cpu time spent up to now is       49.2 secs

     total energy              =    -133.97600106 Ry
     estimated scf accuracy    <       0.00000002 Ry

     iteration # 12     ecut=    90.00 Ry     beta= 0.20
     Davidson diagonalization with overlap
     ethr =  4.13E-11,  avg # of iterations =  5.7

     total cpu time spent up to now is       49.6 secs

     total energy              =    -133.97600106 Ry
     estimated scf accuracy    <          3.9E-09 Ry

     iteration # 13     ecut=    90.00 Ry     beta= 0.20
     Davidson diagonalization with overlap
     ethr =  8.76E-12,  avg # of iterations =  4.5

     total cpu time spent up to now is       49.9 secs

     total energy              =    -133.97600106 Ry
     estimated scf accuracy    <          9.5E-10 Ry

     iteration # 14     ecut=    90.00 Ry     beta= 0.20
     Davidson diagonalization with overlap
     ethr =  2.16E-12,  avg # of iterations =  6.0

     total cpu time spent up to now is       50.2 secs

     End of self-consistent calculation

          k = 0.0000 0.0000 0.0000 ( 14623 PWs)   bands (ev):

   -17.9323 -17.6448 -15.3089 -15.3089 -11.3342 -11.1425  -8.7486  -8.1360
    -7.1230  -6.7638  -6.7638  -6.2858  -5.7377  -5.7377  -3.5705  -3.5705
    -0.8507  -0.8062  -0.1394   0.1715   0.9366   0.9366

          k = 0.0000 0.0000 0.4005 ( 14687 PWs)   bands (ev):

   -17.8200 -17.6663 -15.2857 -15.2857 -11.8598 -11.4597  -8.7801  -7.9679
    -6.9841  -6.9841  -5.9987  -5.7077  -5.7077  -5.5340  -3.5671  -3.5671
    -1.5725  -1.0871  -0.6954   0.0352   1.1601   1.1601

          k = 0.0000 0.3333 0.0000 ( 14674 PWs)   bands (ev):

   -17.8615 -17.7176 -15.3126 -15.3120 -11.2687 -11.1733  -8.6030  -8.2713
    -7.2505  -6.9465  -6.7200  -6.6545  -5.3736  -5.2820  -3.7061  -3.6947
    -0.6308  -0.5406  -0.2868  -0.0407   1.0246   1.0339

          k = 0.0000 0.3333 0.4005 ( 14700 PWs)   bands (ev):

   -17.7782 -17.7011 -15.2975 -15.2968 -11.7424 -11.5395  -8.6508  -8.2523
    -6.9875  -6.9860  -6.0654  -5.9651  -5.4176  -5.2675  -3.6626  -3.6350
    -1.3600  -1.1139  -0.4392  -0.0650   1.0284   1.0440

          k = 0.3333 0.3333 0.0000 ( 14745 PWs)   bands (ev):

   -17.8222 -17.7499 -15.3212 -15.3185 -11.2452 -11.1969  -8.5705  -8.4136
    -7.0666  -6.7793  -6.7311  -6.5824  -5.7387  -5.3234  -3.7514  -3.6776
    -0.5526  -0.3755  -0.2983  -0.0305   1.0175   1.1024

          k = 0.3333 0.3333 0.4005 ( 14669 PWs)   bands (ev):

   -17.7557 -17.7170 -15.3030 -15.2975 -11.7166 -11.6113  -8.5081  -8.2916
    -7.0077  -6.9988  -6.0074  -5.7578  -5.7240  -5.3365  -3.6710  -3.6212
    -1.3495  -1.2108  -0.2381  -0.0384   0.9867   1.1364

     highest occupied level (ev):     1.1601

!    total energy              =    -133.97600106 Ry
     estimated scf accuracy    <          2.1E-10 Ry

     The total energy is the sum of the following terms:
     one-electron contribution =     -88.49070715 Ry
     hartree contribution      =      58.81445086 Ry
     xc contribution           =     -39.51214552 Ry
     ewald contribution        =     -64.72545005 Ry
     Dispersion Correction     =      -0.06214920 Ry

     convergence has been achieved in  14 iterations

     Forces acting on atoms (cartesian axes, Ry/au):

     atom    1 type  1   force =     0.00000000    0.00000000   -0.00583399
     atom    2 type  1   force =     0.00000000    0.00000000    0.00583399
     atom    3 type  2   force =     0.00000000    0.00000000    0.00252447
     atom    4 type  2   force =     0.00000000    0.00000000   -0.00252447
     atom    5 type  3   force =    -0.00057378   -0.00057378   -0.00166666
     atom    6 type  3   force =     0.00057378    0.00057378   -0.00166666
     atom    7 type  3   force =    -0.00057378    0.00057378    0.00166666
     atom    8 type  3   force =     0.00057378   -0.00057378    0.00166666
     atom    9 type  4   force =    -0.00094820   -0.00094820   -0.00131098
     atom   10 type  4   force =     0.00094820    0.00094820   -0.00131098
     atom   11 type  4   force =    -0.00094820    0.00094820    0.00131098
     atom   12 type  4   force =     0.00094820   -0.00094820    0.00131098
     atom   13 type  4   force =    -0.00134148   -0.00134148   -0.00531234
     atom   14 type  4   force =     0.00134148    0.00134148   -0.00531234
     atom   15 type  4   force =    -0.00134148    0.00134148    0.00531234
     atom   16 type  4   force =     0.00134148   -0.00134148    0.00531234

     Total force =     0.015359     Total SCF correction =     0.000012
     Energy error            =      6.5E-04 Ry
     Gradient error          =      5.8E-03 Ry/Bohr

     number of scf cycles    =  10
     number of bfgs steps    =   9

     energy             old  =    -133.9753506694 Ry
     energy             new  =    -133.9760010647 Ry

     CASE: energy            _new < energy            _old

     new trust radius        =       0.0382663619 bohr
     new conv_thr            =       0.0000000006 Ry


ATOMIC_POSITIONS (crystal)
C                0.0000000000        0.5000000000        0.3249975111
C                0.5000000000        0.0000000000        0.6750024639
O                0.0000000000        0.5000000000        0.6209218421
O                0.5000000000        0.0000000000        0.3790781579
N                0.1468039799        0.6468039279        0.1755199184
N                0.8531959881        0.3531960721        0.1755199184
N                0.6468039279        0.8531959881        0.8244800946
N                0.3531960721        0.1468039799        0.8244800946
H                0.2639153652        0.7639153442        0.2716838589
H                0.7360846138        0.2360846348        0.2716838589
H                0.7639153442        0.7360846138        0.7283161161
H                0.2360846348        0.2639153652        0.7283161161
H                0.1370296582        0.6370296692        0.9541470605
H                0.8629703308        0.3629703308        0.9541470605
H                0.6370296692        0.8629703308        0.0458529425
H                0.3629703308        0.1370296582        0.0458529425



     Writing config-only to output data dir /tmp/ceresoli/urea.save/ :
     XML data file
     NEW-OLD atomic charge density approx. for the potential

     total cpu time spent up to now is       50.3 secs

     Self-consistent Calculation

     iteration #  1     ecut=    90.00 Ry     beta= 0.20
     Davidson diagonalization with overlap
     ethr =  1.00E-06,  avg # of iterations =  5.3

     total cpu time spent up to now is       50.9 secs

     total energy              =    -133.97662713 Ry
     estimated scf accuracy    <       0.00240792 Ry

     iteration #  2     ecut=    90.00 Ry     beta= 0.20
     Davidson diagonalization with overlap
     ethr =  5.47E-06,  avg # of iterations =  1.0

     total cpu time spent up to now is       51.1 secs

     total energy              =    -133.97620151 Ry
     estimated scf accuracy    <       0.00115096 Ry

     iteration #  3     ecut=    90.00 Ry     beta= 0.20
     Davidson diagonalization with overlap
     ethr =  2.62E-06,  avg # of iterations =  2.0

     total cpu time spent up to now is       51.4 secs

     total energy              =    -133.97638697 Ry
     estimated scf accuracy    <       0.00013540 Ry

     iteration #  4     ecut=    90.00 Ry     beta= 0.20
     Davidson diagonalization with overlap
     ethr =  3.08E-07,  avg # of iterations =  1.8

     total cpu time spent up to now is       51.6 secs

     total energy              =    -133.97639193 Ry
     estimated scf accuracy    <       0.00004450 Ry

     iteration #  5     ecut=    90.00 Ry     beta= 0.20
     Davidson diagonalization with overlap
     ethr =  1.01E-07,  avg # of iterations =  2.3

     total cpu time spent up to now is       51.9 secs

     total energy              =    -133.97639839 Ry
     estimated scf accuracy    <       0.00001951 Ry

     iteration #  6     ecut=    90.00 Ry     beta= 0.20
     Davidson diagonalization with overlap
     ethr =  4.43E-08,  avg # of iterations =  1.8

     total cpu time spent up to now is       52.1 secs

     total energy              =    -133.97639524 Ry
     estimated scf accuracy    <       0.00000883 Ry

     iteration #  7     ecut=    90.00 Ry     beta= 0.20
     Davidson diagonalization with overlap
     ethr =  2.01E-08,  avg # of iterations =  5.0

     total cpu time spent up to now is       52.4 secs

     total energy              =    -133.97639825 Ry
     estimated scf accuracy    <       0.00000095 Ry

     iteration #  8     ecut=    90.00 Ry     beta= 0.20
     Davidson diagonalization with overlap
     ethr =  2.16E-09,  avg # of iterations =  4.7

     total cpu time spent up to now is       52.8 secs

     total energy              =    -133.97639767 Ry
     estimated scf accuracy    <       0.00000223 Ry

     iteration #  9     ecut=    90.00 Ry     beta= 0.20
     Davidson diagonalization with overlap
     ethr =  2.16E-09,  avg # of iterations =  4.0

     total cpu time spent up to now is       53.1 secs

     total energy              =    -133.97639797 Ry
     estimated scf accuracy    <       0.00000020 Ry

     iteration # 10     ecut=    90.00 Ry     beta= 0.20
     Davidson diagonalization with overlap
     ethr =  4.51E-10,  avg # of iterations =  3.2

     total cpu time spent up to now is       53.4 secs

     total energy              =    -133.97639803 Ry
     estimated scf accuracy    <       0.00000002 Ry

     iteration # 11     ecut=    90.00 Ry     beta= 0.20
     Davidson diagonalization with overlap
     ethr =  5.45E-11,  avg # of iterations =  7.7

     total cpu time spent up to now is       53.8 secs

     total energy              =    -133.97639792 Ry
     estimated scf accuracy    <       0.00000041 Ry

     iteration # 12     ecut=    90.00 Ry     beta= 0.20
     Davidson diagonalization with overlap
     ethr =  5.45E-11,  avg # of iterations =  8.0

     total cpu time spent up to now is       54.3 secs

     total energy              =    -133.97639801 Ry
     estimated scf accuracy    <       0.00000001 Ry

     iteration # 13     ecut=    90.00 Ry     beta= 0.20
     Davidson diagonalization with overlap
     ethr =  2.62E-11,  avg # of iterations =  2.0

     total cpu time spent up to now is       54.6 secs

     total energy              =    -133.97639801 Ry
     estimated scf accuracy    <          5.2E-09 Ry

     iteration # 14     ecut=    90.00 Ry     beta= 0.20
     Davidson diagonalization with overlap
     ethr =  1.17E-11,  avg # of iterations =  4.0

     total cpu time spent up to now is       54.9 secs

     End of self-consistent calculation

          k = 0.0000 0.0000 0.0000 ( 14623 PWs)   bands (ev):

   -17.9157 -17.6255 -15.2961 -15.2961 -11.3322 -11.1421  -8.7565  -8.1401
    -7.1266  -6.7546  -6.7546  -6.2620  -5.7361  -5.7361  -3.5607  -3.5607
    -0.8536  -0.8155  -0.1295   0.1782   0.9325   0.9325

          k = 0.0000 0.0000 0.4005 ( 14687 PWs)   bands (ev):

   -17.8032 -17.6464 -15.2729 -15.2729 -11.8621 -11.4577  -8.7947  -7.9675
    -6.9718  -6.9718  -5.9823  -5.7112  -5.7112  -5.5140  -3.5573  -3.5573
    -1.5900  -1.0866  -0.7008   0.0446   1.1549   1.1549

          k = 0.0000 0.3333 0.0000 ( 14674 PWs)   bands (ev):

   -17.8443 -17.6990 -15.2997 -15.2991 -11.2674 -11.1729  -8.6091  -8.2743
    -7.2561  -6.9460  -6.7045  -6.6333  -5.3729  -5.2782  -3.6946  -3.6836
    -0.6360  -0.5411  -0.2827  -0.0366   1.0224   1.0316

          k = 0.0000 0.3333 0.4005 ( 14700 PWs)   bands (ev):

   -17.7606 -17.6819 -15.2848 -15.2839 -11.7441 -11.5391  -8.6607  -8.2546
    -6.9751  -6.9734  -6.0560  -5.9588  -5.4155  -5.2609  -3.6514  -3.6240
    -1.3723  -1.1173  -0.4413  -0.0596   1.0240   1.0396

          k = 0.3333 0.3333 0.0000 ( 14745 PWs)   bands (ev):

   -17.8046 -17.7317 -15.3085 -15.3056 -11.2439 -11.1961  -8.5779  -8.4190
    -7.0688  -6.7703  -6.7161  -6.5677  -5.7365  -5.3211  -3.7404  -3.6686
    -0.5548  -0.3733  -0.2976  -0.0275   1.0167   1.0982

          k = 0.3333 0.3333 0.4005 ( 14669 PWs)   bands (ev):

   -17.7377 -17.6982 -15.2902 -15.2847 -11.7180 -11.6117  -8.5160  -8.2962
    -6.9952  -6.9862  -5.9998  -5.7407  -5.7274  -5.3314  -3.6597  -3.6115
    -1.3594  -1.2168  -0.2384  -0.0347   0.9819   1.1310

     highest occupied level (ev):     1.1549

!    total energy              =    -133.97639801 Ry
     estimated scf accuracy    <          8.2E-11 Ry

     The total energy is the sum of the following terms:
     one-electron contribution =     -88.31981812 Ry
     hartree contribution      =      58.72917640 Ry
     xc contribution           =     -39.50085002 Ry
     ewald contribution        =     -64.82256888 Ry
     Dispersion Correction     =      -0.06233740 Ry

     convergence has been achieved in  14 iterations

     Forces acting on atoms (cartesian axes, Ry/au):

     atom    1 type  1   force =     0.00000000    0.00000000   -0.00439282
     atom    2 type  1   force =     0.00000000    0.00000000    0.00439282
     atom    3 type  2   force =     0.00000000    0.00000000    0.00089481
     atom    4 type  2   force =     0.00000000    0.00000000   -0.00089481
     atom    5 type  3   force =    -0.00203455   -0.00203455   -0.00392433
     atom    6 type  3   force =     0.00203455    0.00203455   -0.00392433
     atom    7 type  3   force =    -0.00203455    0.00203455    0.00392433
     atom    8 type  3   force =     0.00203455   -0.00203455    0.00392433
     atom    9 type  4   force =    -0.00196268   -0.00196268    0.00139607
     atom   10 type  4   force =     0.00196268    0.00196268    0.00139607
     atom   11 type  4   force =    -0.00196268    0.00196268   -0.00139607
     atom   12 type  4   force =     0.00196268   -0.00196268   -0.00139607
     atom   13 type  4   force =    -0.00156622   -0.00156622   -0.00474350
     atom   14 type  4   force =     0.00156622    0.00156622   -0.00474350
     atom   15 type  4   force =    -0.00156622    0.00156622    0.00474350
     atom   16 type  4   force =     0.00156622   -0.00156622    0.00474350

     Total force =     0.016827     Total SCF correction =     0.000019
     Energy error            =      4.0E-04 Ry
     Gradient error          =      4.7E-03 Ry/Bohr

     number of scf cycles    =  11
     number of bfgs steps    =  10

     energy             old  =    -133.9760010647 Ry
     energy             new  =    -133.9763980111 Ry

     CASE: energy            _new < energy            _old

     new trust radius        =       0.0266225885 bohr
     new conv_thr            =       0.0000000004 Ry


ATOMIC_POSITIONS (crystal)
C                0.0000000000        0.5000000000        0.3237354326
C                0.5000000000        0.0000000000        0.6762645424
O                0.0000000000        0.5000000000        0.6198707570
O                0.5000000000        0.0000000000        0.3801292430
N                0.1466964868        0.6466964348        0.1738092753
N                0.8533034812        0.3533035652        0.1738092753
N                0.6466964348        0.8533034812        0.8261907377
N                0.3533035652        0.1466964868        0.8261907377
H                0.2644360578        0.7644360368        0.2688279147
H                0.7355639212        0.2355639422        0.2688279147
H                0.7644360368        0.7355639212        0.7311720603
H                0.2355639422        0.2644360578        0.7311720603
H                0.1366619728        0.6366619838        0.9524464076
H                0.8633380162        0.3633380162        0.9524464076
H                0.6366619838        0.8633380162        0.0475535954
H                0.3633380162        0.1366619728        0.0475535954



     Writing config-only to output data dir /tmp/ceresoli/urea.save/ :
     XML data file
     NEW-OLD atomic charge density approx. for the potential

     total cpu time spent up to now is       55.0 secs

     Self-consistent Calculation

     iteration #  1     ecut=    90.00 Ry     beta= 0.20
     Davidson diagonalization with overlap
     ethr =  1.00E-06,  avg # of iterations =  5.5

     total cpu time spent up to now is       55.5 secs

     total energy              =    -133.97688176 Ry
     estimated scf accuracy    <       0.00144834 Ry

     iteration #  2     ecut=    90.00 Ry     beta= 0.20
     Davidson diagonalization with overlap
     ethr =  3.29E-06,  avg # of iterations =  1.0

     total cpu time spent up to now is       55.8 secs

     total energy              =    -133.97663916 Ry
     estimated scf accuracy    <       0.00069183 Ry

     iteration #  3     ecut=    90.00 Ry     beta= 0.20
     Davidson diagonalization with overlap
     ethr =  1.57E-06,  avg # of iterations =  2.0

     total cpu time spent up to now is       56.0 secs

     total energy              =    -133.97674661 Ry
     estimated scf accuracy    <       0.00008177 Ry

     iteration #  4     ecut=    90.00 Ry     beta= 0.20
     Davidson diagonalization with overlap
     ethr =  1.86E-07,  avg # of iterations =  2.0

     total cpu time spent up to now is       56.3 secs

     total energy              =    -133.97675505 Ry
     estimated scf accuracy    <       0.00002296 Ry

     iteration #  5     ecut=    90.00 Ry     beta= 0.20
     Davidson diagonalization with overlap
     ethr =  5.22E-08,  avg # of iterations =  4.2

     total cpu time spent up to now is       56.6 secs

     total energy              =    -133.97675695 Ry
     estimated scf accuracy    <       0.00001257 Ry

     iteration #  6     ecut=    90.00 Ry     beta= 0.20
     Davidson diagonalization with overlap
     ethr =  2.86E-08,  avg # of iterations =  2.5

     total cpu time spent up to now is       56.8 secs

     total energy              =    -133.97675626 Ry
     estimated scf accuracy    <       0.00000349 Ry

     iteration #  7     ecut=    90.00 Ry     beta= 0.20
     Davidson diagonalization with overlap
     ethr =  7.92E-09,  avg # of iterations =  4.7

     total cpu time spent up to now is       57.2 secs

     total energy              =    -133.97675772 Ry
     estimated scf accuracy    <       0.00000166 Ry

     iteration #  8     ecut=    90.00 Ry     beta= 0.20
     Davidson diagonalization with overlap
     ethr =  3.77E-09,  avg # of iterations =  1.8

     total cpu time spent up to now is       57.4 secs

     total energy              =    -133.97675742 Ry
     estimated scf accuracy    <       0.00000072 Ry

     iteration #  9     ecut=    90.00 Ry     beta= 0.20
     Davidson diagonalization with overlap
     ethr =  1.64E-09,  avg # of iterations =  6.0

     total cpu time spent up to now is       57.7 secs

     total energy              =    -133.97675763 Ry
     estimated scf accuracy    <       0.00000010 Ry

     iteration # 10     ecut=    90.00 Ry     beta= 0.20
     Davidson diagonalization with overlap
     ethr =  2.28E-10,  avg # of iterations =  6.3

     total cpu time spent up to now is       58.1 secs

     total energy              =    -133.97675767 Ry
     estimated scf accuracy    <       0.00000004 Ry

     iteration # 11     ecut=    90.00 Ry     beta= 0.20
     Davidson diagonalization with overlap
     ethr =  9.94E-11,  avg # of iterations =  4.2

     total cpu time spent up to now is       58.4 secs

     total energy              =    -133.97675768 Ry
     estimated scf accuracy    <       0.00000001 Ry

     iteration # 12     ecut=    90.00 Ry     beta= 0.20
     Davidson diagonalization with overlap
     ethr =  2.38E-11,  avg # of iterations =  3.7

     total cpu time spent up to now is       58.6 secs

     total energy              =    -133.97675768 Ry
     estimated scf accuracy    <          7.1E-09 Ry

     iteration # 13     ecut=    90.00 Ry     beta= 0.20
     Davidson diagonalization with overlap
     ethr =  1.60E-11,  avg # of iterations =  4.8

     total cpu time spent up to now is       58.9 secs

     total energy              =    -133.97675768 Ry
     estimated scf accuracy    <          1.1E-09 Ry

     iteration # 14     ecut=    90.00 Ry     beta= 0.20
     Davidson diagonalization with overlap
     ethr =  2.53E-12,  avg # of iterations =  6.7

     total cpu time spent up to now is       59.3 secs

     End of self-consistent calculation

          k = 0.0000 0.0000 0.0000 ( 14623 PWs)   bands (ev):

   -17.9100 -17.6190 -15.2799 -15.2799 -11.3224 -11.1408  -8.7554  -8.1350
    -7.1453  -6.7502  -6.7502  -6.2512  -5.7166  -5.7166  -3.5551  -3.5551
    -0.8518  -0.8250  -0.1207   0.1886   0.9257   0.9258

          k = 0.0000 0.0000 0.4005 ( 14687 PWs)   bands (ev):

   -17.7978 -17.6388 -15.2566 -15.2566 -11.8595 -11.4591  -8.7895  -7.9591
    -6.9671  -6.9671  -5.9824  -5.6920  -5.6920  -5.5096  -3.5534  -3.5534
    -1.6066  -1.0880  -0.7016   0.0579   1.1500   1.1500

          k = 0.0000 0.3333 0.0000 ( 14674 PWs)   bands (ev):

   -17.8384 -17.6927 -15.2835 -15.2829 -11.2601 -11.1699  -8.6061  -8.2675
    -7.2683  -6.9446  -6.6994  -6.6262  -5.3557  -5.2596  -3.6893  -3.6781
    -0.6415  -0.5372  -0.2794  -0.0288   1.0167   1.0258

          k = 0.0000 0.3333 0.4005 ( 14700 PWs)   bands (ev):

   -17.7547 -17.6749 -15.2684 -15.2676 -11.7428 -11.5399  -8.6534  -8.2453
    -6.9703  -6.9686  -6.0531  -5.9520  -5.4004  -5.2475  -3.6470  -3.6196
    -1.3844  -1.1218  -0.4391  -0.0504   1.0196   1.0352

          k = 0.3333 0.3333 0.0000 ( 14745 PWs)   bands (ev):

   -17.7986 -17.7255 -15.2924 -15.2894 -11.2374 -11.1918  -8.5767  -8.4157
    -7.0739  -6.7660  -6.7127  -6.5662  -5.7167  -5.3034  -3.7348  -3.6629
    -0.5574  -0.3717  -0.2930  -0.0209   1.0120   1.0892

          k = 0.3333 0.3333 0.4005 ( 14669 PWs)   bands (ev):

   -17.7315 -17.6914 -15.2739 -15.2684 -11.7171 -11.6118  -8.5085  -8.2885
    -6.9906  -6.9814  -5.9950  -5.7383  -5.7082  -5.3179  -3.6551  -3.6076
    -1.3695  -1.2236  -0.2348  -0.0273   0.9775   1.1264

     highest occupied level (ev):     1.1500

!    total energy              =    -133.97675768 Ry
     estimated scf accuracy    <          2.7E-10 Ry

     The total energy is the sum of the following terms:
     one-electron contribution =     -88.26782539 Ry
     hartree contribution      =      58.70506461 Ry
     xc contribution           =     -39.49168472 Ry
     ewald contribution        =     -64.85981449 Ry
     Dispersion Correction     =      -0.06249769 Ry

     convergence has been achieved in  14 iterations

     Forces acting on atoms (cartesian axes, Ry/au):

     atom    1 type  1   force =     0.00000000    0.00000000   -0.00412806
     atom    2 type  1   force =     0.00000000    0.00000000    0.00412806
     atom    3 type  2   force =     0.00000000    0.00000000   -0.00075285
     atom    4 type  2   force =     0.00000000    0.00000000    0.00075285
     atom    5 type  3   force =     0.00007494    0.00007494   -0.00273119
     atom    6 type  3   force =    -0.00007494   -0.00007494   -0.00273119
     atom    7 type  3   force =     0.00007494   -0.00007494    0.00273119
     atom    8 type  3   force =    -0.00007494    0.00007494    0.00273119
     atom    9 type  4   force =    -0.00399736   -0.00399736    0.00163610
     atom   10 type  4   force =     0.00399736    0.00399736    0.00163610
     atom   11 type  4   force =    -0.00399736    0.00399736   -0.00163610
     atom   12 type  4   force =     0.00399736   -0.00399736   -0.00163610
     atom   13 type  4   force =    -0.00177114   -0.00177114   -0.00475696
     atom   14 type  4   force =     0.00177114    0.00177114   -0.00475696
     atom   15 type  4   force =    -0.00177114    0.00177114    0.00475696
     atom   16 type  4   force =     0.00177114   -0.00177114    0.00475696

     Total force =     0.017867     Total SCF correction =     0.000026
     Energy error            =      3.6E-04 Ry
     Gradient error          =      4.8E-03 Ry/Bohr

     number of scf cycles    =  12
     number of bfgs steps    =  11

     energy             old  =    -133.9763980111 Ry
     energy             new  =    -133.9767576759 Ry

     CASE: energy            _new < energy            _old

     new trust radius        =       0.0292848473 bohr
     new conv_thr            =       0.0000000004 Ry


ATOMIC_POSITIONS (crystal)
C                0.0000000000        0.5000000000        0.3218606424
C                0.5000000000        0.0000000000        0.6781393326
O                0.0000000000        0.5000000000        0.6184064095
O                0.5000000000        0.0000000000        0.3815935905
N                0.1466456802        0.6466456282        0.1715281047
N                0.8533542878        0.3533543718        0.1715281047
N                0.6466456282        0.8533542878        0.8284719083
N                0.3533543718        0.1466456802        0.8284719083
H                0.2646507959        0.7646507749        0.2655594045
H                0.7353491831        0.2353492041        0.2655594045
H                0.7646507749        0.7353491831        0.7344405705
H                0.2353492041        0.2646507959        0.7344405705
H                0.1360615337        0.6360615447        0.9499187897
H                0.8639384553        0.3639384553        0.9499187897
H                0.6360615447        0.8639384553        0.0500812133
H                0.3639384553        0.1360615337        0.0500812133



     Writing config-only to output data dir /tmp/ceresoli/urea.save/ :
     XML data file
     NEW-OLD atomic charge density approx. for the potential

     total cpu time spent up to now is       59.4 secs

     Self-consistent Calculation

     iteration #  1     ecut=    90.00 Ry     beta= 0.20
     Davidson diagonalization with overlap
     ethr =  1.00E-06,  avg # of iterations =  6.2

     total cpu time spent up to now is       60.0 secs

     total energy              =    -133.97746317 Ry
     estimated scf accuracy    <       0.00196378 Ry

     iteration #  2     ecut=    90.00 Ry     beta= 0.20
     Davidson diagonalization with overlap
     ethr =  4.46E-06,  avg # of iterations =  1.0

     total cpu time spent up to now is       60.2 secs

     total energy              =    -133.97715986 Ry
     estimated scf accuracy    <       0.00095206 Ry

     iteration #  3     ecut=    90.00 Ry     beta= 0.20
     Davidson diagonalization with overlap
     ethr =  2.16E-06,  avg # of iterations =  2.0

     total cpu time spent up to now is       60.5 secs

     total energy              =    -133.97728937 Ry
     estimated scf accuracy    <       0.00011706 Ry

     iteration #  4     ecut=    90.00 Ry     beta= 0.20
     Davidson diagonalization with overlap
     ethr =  2.66E-07,  avg # of iterations =  2.7

     total cpu time spent up to now is       60.8 secs

     total energy              =    -133.97730995 Ry
     estimated scf accuracy    <       0.00002740 Ry

     iteration #  5     ecut=    90.00 Ry     beta= 0.20
     Davidson diagonalization with overlap
     ethr =  6.23E-08,  avg # of iterations =  3.5

     total cpu time spent up to now is       61.0 secs

     total energy              =    -133.97730775 Ry
     estimated scf accuracy    <       0.00001077 Ry

     iteration #  6     ecut=    90.00 Ry     beta= 0.20
     Davidson diagonalization with overlap
     ethr =  2.45E-08,  avg # of iterations =  4.7

     total cpu time spent up to now is       61.3 secs

     total energy              =    -133.97731113 Ry
     estimated scf accuracy    <       0.00000219 Ry

     iteration #  7     ecut=    90.00 Ry     beta= 0.20
     Davidson diagonalization with overlap
     ethr =  4.97E-09,  avg # of iterations =  2.8

     total cpu time spent up to now is       61.6 secs

     total energy              =    -133.97731076 Ry
     estimated scf accuracy    <       0.00000111 Ry

     iteration #  8     ecut=    90.00 Ry     beta= 0.20
     Davidson diagonalization with overlap
     ethr =  2.53E-09,  avg # of iterations =  4.2

     total cpu time spent up to now is       61.9 secs

     total energy              =    -133.97731107 Ry
     estimated scf accuracy    <       0.00000016 Ry

     iteration #  9     ecut=    90.00 Ry     beta= 0.20
     Davidson diagonalization with overlap
     ethr =  3.54E-10,  avg # of iterations =  5.0

     total cpu time spent up to now is       62.2 secs

     total energy              =    -133.97731112 Ry
     estimated scf accuracy    <       0.00000002 Ry

     iteration # 10     ecut=    90.00 Ry     beta= 0.20
     Davidson diagonalization with overlap
     ethr =  5.01E-11,  avg # of iterations =  6.2

     total cpu time spent up to now is       62.6 secs

     total energy              =    -133.97731110 Ry
     estimated scf accuracy    <       0.00000007 Ry

     iteration # 11     ecut=    90.00 Ry     beta= 0.20
     Davidson diagonalization with overlap
     ethr =  5.01E-11,  avg # of iterations =  6.0

     total cpu time spent up to now is       63.0 secs

     total energy              =    -133.97731112 Ry
     estimated scf accuracy    <          7.8E-09 Ry

     iteration # 12     ecut=    90.00 Ry     beta= 0.20
     Davidson diagonalization with overlap
     ethr =  1.77E-11,  avg # of iterations =  2.5

     total cpu time spent up to now is       63.2 secs

     total energy              =    -133.97731112 Ry
     estimated scf accuracy    <          2.0E-09 Ry

     iteration # 13     ecut=    90.00 Ry     beta= 0.20
     Davidson diagonalization with overlap
     ethr =  4.57E-12,  avg # of iterations =  6.2

     total cpu time spent up to now is       63.6 secs

     total energy              =    -133.97731112 Ry
     estimated scf accuracy    <          9.8E-10 Ry

     iteration # 14     ecut=    90.00 Ry     beta= 0.20
     Davidson diagonalization with overlap
     ethr =  2.22E-12,  avg # of iterations =  3.0

     total cpu time spent up to now is       63.8 secs

     End of self-consistent calculation

          k = 0.0000 0.0000 0.0000 ( 14623 PWs)   bands (ev):

   -17.9032 -17.6107 -15.2678 -15.2678 -11.3022 -11.1298  -8.7543  -8.1460
    -7.1621  -6.7331  -6.7331  -6.2567  -5.7081  -5.7081  -3.5491  -3.5491
    -0.8525  -0.8290  -0.1110   0.1994   0.9167   0.9167

          k = 0.0000 0.0000 0.4005 ( 14687 PWs)   bands (ev):

   -17.7914 -17.6292 -15.2443 -15.2443 -11.8480 -11.4525  -8.7934  -7.9623
    -6.9510  -6.9510  -5.9783  -5.6840  -5.6840  -5.5089  -3.5481  -3.5481
    -1.6235  -1.0923  -0.7055   0.0725   1.1457   1.1457

          k = 0.0000 0.3333 0.0000 ( 14674 PWs)   bands (ev):

   -17.8312 -17.6849 -15.2712 -15.2707 -11.2426 -11.1571  -8.6050  -8.2702
    -7.2839  -6.9462  -6.6828  -6.6151  -5.3513  -5.2564  -3.6813  -3.6710
    -0.6436  -0.5351  -0.2753  -0.0213   1.0088   1.0179

          k = 0.0000 0.3333 0.4005 ( 14700 PWs)   bands (ev):

   -17.7476 -17.6662 -15.2561 -15.2553 -11.7329 -11.5324  -8.6554  -8.2464
    -6.9540  -6.9522  -6.0518  -5.9501  -5.3940  -5.2437  -3.6399  -3.6130
    -1.3988  -1.1300  -0.4390  -0.0412   1.0184   1.0338

          k = 0.3333 0.3333 0.0000 ( 14745 PWs)   bands (ev):

   -17.7912 -17.7178 -15.2803 -15.2772 -11.2208 -11.1775  -8.5795  -8.4191
    -7.0840  -6.7493  -6.7038  -6.5711  -5.7077  -5.2996  -3.7270  -3.6569
    -0.5569  -0.3682  -0.2898  -0.0151   1.0052   1.0767

          k = 0.3333 0.3333 0.4005 ( 14669 PWs)   bands (ev):

   -17.7239 -17.6831 -15.2616 -15.2562 -11.7077 -11.6036  -8.5107  -8.2908
    -6.9746  -6.9652  -5.9935  -5.7365  -5.6998  -5.3131  -3.6481  -3.6022
    -1.3814  -1.2333  -0.2328  -0.0205   0.9764   1.1230

     highest occupied level (ev):     1.1457

!    total energy              =    -133.97731112 Ry
     estimated scf accuracy    <          3.4E-11 Ry

     The total energy is the sum of the following terms:
     one-electron contribution =     -88.20949543 Ry
     hartree contribution      =      58.67674470 Ry
     xc contribution           =     -39.48184766 Ry
     ewald contribution        =     -64.90001511 Ry
     Dispersion Correction     =      -0.06269761 Ry

     convergence has been achieved in  14 iterations

     Forces acting on atoms (cartesian axes, Ry/au):

     atom    1 type  1   force =     0.00000000    0.00000000   -0.00222380
     atom    2 type  1   force =     0.00000000    0.00000000    0.00222380
     atom    3 type  2   force =     0.00000000    0.00000000   -0.00382963
     atom    4 type  2   force =     0.00000000    0.00000000    0.00382963
     atom    5 type  3   force =    -0.00054938   -0.00054938   -0.00396306
     atom    6 type  3   force =     0.00054938    0.00054938   -0.00396306
     atom    7 type  3   force =    -0.00054938    0.00054938    0.00396306
     atom    8 type  3   force =     0.00054938   -0.00054938    0.00396306
     atom    9 type  4   force =    -0.00426776   -0.00426776    0.00274158
     atom   10 type  4   force =     0.00426776    0.00426776    0.00274158
     atom   11 type  4   force =    -0.00426776    0.00426776   -0.00274158
     atom   12 type  4   force =     0.00426776   -0.00426776   -0.00274158
     atom   13 type  4   force =    -0.00148710   -0.00148710   -0.00328418
     atom   14 type  4   force =     0.00148710    0.00148710   -0.00328418
     atom   15 type  4   force =    -0.00148710    0.00148710    0.00328418
     atom   16 type  4   force =     0.00148710   -0.00148710    0.00328418

     Total force =     0.018468     Total SCF correction =     0.000008
     Energy error            =      5.5E-04 Ry
     Gradient error          =      4.3E-03 Ry/Bohr

     number of scf cycles    =  13
     number of bfgs steps    =  12

     energy             old  =    -133.9767576759 Ry
     energy             new  =    -133.9773111184 Ry

     CASE: energy            _new < energy            _old

     new trust radius        =       0.0439272710 bohr
     new conv_thr            =       0.0000000004 Ry


ATOMIC_POSITIONS (crystal)
C                0.0000000000        0.5000000000        0.3184506759
C                0.5000000000        0.0000000000        0.6815492991
O                0.0000000000        0.5000000000        0.6155072249
O                0.5000000000        0.0000000000        0.3844927751
N                0.1463334461        0.6463333941        0.1672432117
N                0.8536665219        0.3536666059        0.1672432117
N                0.6463333941        0.8536665219        0.8327568013
N                0.3536666059        0.1463334461        0.8327568013
H                0.2645741438        0.7645741228        0.2607119097
H                0.7354258352        0.2354258562        0.2607119097
H                0.7645741228        0.7354258352        0.7392880653
H                0.2354258562        0.2645741438        0.7392880653
H                0.1349272602        0.6349272712        0.9453775761
H                0.8650727288        0.3650727288        0.9453775761
H                0.6349272712        0.8650727288        0.0546224269
H                0.3650727288        0.1349272602        0.0546224269



     Writing config-only to output data dir /tmp/ceresoli/urea.save/ :
     XML data file
     NEW-OLD atomic charge density approx. for the potential

     total cpu time spent up to now is       64.0 secs

     Self-consistent Calculation

     iteration #  1     ecut=    90.00 Ry     beta= 0.20
     Davidson diagonalization with overlap
     ethr =  1.00E-06,  avg # of iterations =  8.2

     total cpu time spent up to now is       64.6 secs

     total energy              =    -133.97866181 Ry
     estimated scf accuracy    <       0.00496454 Ry

     iteration #  2     ecut=    90.00 Ry     beta= 0.20
     Davidson diagonalization with overlap
     ethr =  1.13E-05,  avg # of iterations =  1.0

     total cpu time spent up to now is       64.9 secs

     total energy              =    -133.97795065 Ry
     estimated scf accuracy    <       0.00242199 Ry

     iteration #  3     ecut=    90.00 Ry     beta= 0.20
     Davidson diagonalization with overlap
     ethr =  5.50E-06,  avg # of iterations =  2.0

     total cpu time spent up to now is       65.1 secs

     total energy              =    -133.97825699 Ry
     estimated scf accuracy    <       0.00030375 Ry

     iteration #  4     ecut=    90.00 Ry     beta= 0.20
     Davidson diagonalization with overlap
     ethr =  6.90E-07,  avg # of iterations =  2.7

     total cpu time spent up to now is       65.4 secs

     total energy              =    -133.97831196 Ry
     estimated scf accuracy    <       0.00005655 Ry

     iteration #  5     ecut=    90.00 Ry     beta= 0.20
     Davidson diagonalization with overlap
     ethr =  1.29E-07,  avg # of iterations =  4.5

     total cpu time spent up to now is       65.8 secs

     total energy              =    -133.97831877 Ry
     estimated scf accuracy    <       0.00002716 Ry

     iteration #  6     ecut=    90.00 Ry     beta= 0.20
     Davidson diagonalization with overlap
     ethr =  6.17E-08,  avg # of iterations =  2.8

     total cpu time spent up to now is       66.0 secs

     total energy              =    -133.97831924 Ry
     estimated scf accuracy    <       0.00000820 Ry

     iteration #  7     ecut=    90.00 Ry     beta= 0.20
     Davidson diagonalization with overlap
     ethr =  1.86E-08,  avg # of iterations =  4.7

     total cpu time spent up to now is       66.3 secs

     total energy              =    -133.97832100 Ry
     estimated scf accuracy    <       0.00000088 Ry

     iteration #  8     ecut=    90.00 Ry     beta= 0.20
     Davidson diagonalization with overlap
     ethr =  1.99E-09,  avg # of iterations =  5.0

     total cpu time spent up to now is       66.6 secs

     total energy              =    -133.97832124 Ry
     estimated scf accuracy    <       0.00000048 Ry

     iteration #  9     ecut=    90.00 Ry     beta= 0.20
     Davidson diagonalization with overlap
     ethr =  1.09E-09,  avg # of iterations =  2.0

     total cpu time spent up to now is       66.9 secs

     total energy              =    -133.97832123 Ry
     estimated scf accuracy    <       0.00000011 Ry

     iteration # 10     ecut=    90.00 Ry     beta= 0.20
     Davidson diagonalization with overlap
     ethr =  2.49E-10,  avg # of iterations =  7.3

     total cpu time spent up to now is       67.3 secs

     total energy              =    -133.97832128 Ry
     estimated scf accuracy    <       0.00000012 Ry

     iteration # 11     ecut=    90.00 Ry     beta= 0.20
     Davidson diagonalization with overlap
     ethr =  2.49E-10,  avg # of iterations =  2.8

     total cpu time spent up to now is       67.5 secs

     total energy              =    -133.97832128 Ry
     estimated scf accuracy    <       0.00000001 Ry

     iteration # 12     ecut=    90.00 Ry     beta= 0.20
     Davidson diagonalization with overlap
     ethr =  3.17E-11,  avg # of iterations =  6.8

     total cpu time spent up to now is       67.9 secs

     total energy              =    -133.97832129 Ry
     estimated scf accuracy    <       0.00000001 Ry

     iteration # 13     ecut=    90.00 Ry     beta= 0.20
     Davidson diagonalization with overlap
     ethr =  3.17E-11,  avg # of iterations =  4.5

     total cpu time spent up to now is       68.3 secs

     total energy              =    -133.97832129 Ry
     estimated scf accuracy    <          2.8E-09 Ry

     iteration # 14     ecut=    90.00 Ry     beta= 0.20
     Davidson diagonalization with overlap
     ethr =  6.31E-12,  avg # of iterations =  4.3

     total cpu time spent up to now is       68.6 secs

     total energy              =    -133.97832129 Ry
     estimated scf accuracy    <          1.7E-09 Ry

     iteration # 15     ecut=    90.00 Ry     beta= 0.20
     Davidson diagonalization with overlap
     ethr =  3.88E-12,  avg # of iterations =  5.5

     total cpu time spent up to now is       68.9 secs

     End of self-consistent calculation

          k = 0.0000 0.0000 0.0000 ( 14623 PWs)   bands (ev):

   -17.9044 -17.6111 -15.2487 -15.2487 -11.2676 -11.1180  -8.7461  -8.1643
    -7.2015  -6.7096  -6.7096  -6.2800  -5.6852  -5.6852  -3.5455  -3.5455
    -0.8517  -0.8373  -0.0980   0.2203   0.9009   0.9009

          k = 0.0000 0.0000 0.4005 ( 14687 PWs)   bands (ev):

   -17.7943 -17.6267 -15.2251 -15.2251 -11.8295 -11.4501  -8.7876  -7.9671
    -6.9317  -6.9317  -5.9874  -5.6575  -5.6575  -5.5244  -3.5466  -3.5466
    -1.6504  -1.1017  -0.7105   0.1002   1.1377   1.1377

          k = 0.0000 0.3333 0.0000 ( 14674 PWs)   bands (ev):

   -17.8323 -17.6855 -15.2520 -15.2515 -11.2146 -11.1406  -8.5978  -8.2720
    -7.3163  -6.9517  -6.6649  -6.6086  -5.3368  -5.2456  -3.6754  -3.6660
    -0.6491  -0.5295  -0.2715  -0.0062   0.9944   1.0033

          k = 0.0000 0.3333 0.4005 ( 14700 PWs)   bands (ev):

   -17.7493 -17.6651 -15.2365 -15.2357 -11.7188 -11.5264  -8.6485  -8.2437
    -6.9344  -6.9326  -6.0589  -5.9513  -5.3776  -5.2368  -3.6358  -3.6097
    -1.4227  -1.1455  -0.4372  -0.0234   1.0164   1.0312

          k = 0.3333 0.3333 0.0000 ( 14745 PWs)   bands (ev):

   -17.7922 -17.7185 -15.2613 -15.2580 -11.1950 -11.1576  -8.5800  -8.4215
    -7.1059  -6.7263  -6.7032  -6.5883  -5.6843  -5.2871  -3.7208  -3.6522
    -0.5581  -0.3648  -0.2828  -0.0034   0.9921   1.0530

          k = 0.3333 0.3333 0.4005 ( 14669 PWs)   bands (ev):

   -17.7249 -17.6827 -15.2421 -15.2370 -11.6951 -11.5950  -8.5059  -8.2894
    -6.9558  -6.9458  -5.9977  -5.7490  -5.6725  -5.3029  -3.6441  -3.6007
    -1.4014  -1.2504  -0.2280  -0.0072   0.9746   1.1168

     highest occupied level (ev):     1.1377

!    total energy              =    -133.97832129 Ry
     estimated scf accuracy    <          3.6E-11 Ry

     The total energy is the sum of the following terms:
     one-electron contribution =     -88.28158764 Ry
     hartree contribution      =      58.71368968 Ry
     xc contribution           =     -39.47161133 Ry
     ewald contribution        =     -64.87580367 Ry
     Dispersion Correction     =      -0.06300834 Ry

     convergence has been achieved in  15 iterations

     Forces acting on atoms (cartesian axes, Ry/au):

     atom    1 type  1   force =     0.00000000    0.00000000   -0.00067282
     atom    2 type  1   force =     0.00000000    0.00000000    0.00067282
     atom    3 type  2   force =     0.00000000    0.00000000   -0.00756995
     atom    4 type  2   force =     0.00000000    0.00000000    0.00756995
     atom    5 type  3   force =     0.00101375    0.00101375   -0.00338299
     atom    6 type  3   force =    -0.00101375   -0.00101375   -0.00338299
     atom    7 type  3   force =     0.00101375   -0.00101375    0.00338299
     atom    8 type  3   force =    -0.00101375    0.00101375    0.00338299
     atom    9 type  4   force =    -0.00520124   -0.00520124    0.00283715
     atom   10 type  4   force =     0.00520124    0.00520124    0.00283715
     atom   11 type  4   force =    -0.00520124    0.00520124   -0.00283715
     atom   12 type  4   force =     0.00520124   -0.00520124   -0.00283715
     atom   13 type  4   force =    -0.00088757   -0.00088757   -0.00177219
     atom   14 type  4   force =     0.00088757    0.00088757   -0.00177219
     atom   15 type  4   force =    -0.00088757    0.00088757    0.00177219
     atom   16 type  4   force =     0.00088757   -0.00088757    0.00177219

     Total force =     0.020905     Total SCF correction =     0.000009
     Energy error            =      1.0E-03 Ry
     Gradient error          =      7.6E-03 Ry/Bohr

     number of scf cycles    =  14
     number of bfgs steps    =  13

     energy             old  =    -133.9773111184 Ry
     energy             new  =    -133.9783212903 Ry

     CASE: energy            _new < energy            _old

     new trust radius        =       0.0658909065 bohr
     new conv_thr            =       0.0000000008 Ry


ATOMIC_POSITIONS (crystal)
C                0.0000000000        0.5000000000        0.3131355531
C                0.5000000000        0.0000000000        0.6868644219
O                0.0000000000        0.5000000000        0.6107460050
O                0.5000000000        0.0000000000        0.3892539950
N                0.1459025043        0.6459024523        0.1608266068
N                0.8540974637        0.3540975477        0.1608266068
N                0.6459024523        0.8540974637        0.8391734062
N                0.3540975477        0.1459025043        0.8391734062
H                0.2638953469        0.7638953259        0.2543298158
H                0.7361046321        0.2361046531        0.2543298158
H                0.7638953259        0.7361046321        0.7456701592
H                0.2361046531        0.2638953469        0.7456701592
H                0.1332134837        0.6332134947        0.9385747106
H                0.8667865053        0.3667865053        0.9385747106
H                0.6332134947        0.8667865053        0.0614252924
H                0.3667865053        0.1332134837        0.0614252924



     Writing config-only to output data dir /tmp/ceresoli/urea.save/ :
     XML data file
     NEW-OLD atomic charge density approx. for the potential

     total cpu time spent up to now is       69.0 secs

     Self-consistent Calculation

     iteration #  1     ecut=    90.00 Ry     beta= 0.20
     Davidson diagonalization with overlap
     ethr =  1.00E-06,  avg # of iterations =  9.2

     total cpu time spent up to now is       69.8 secs

     total energy              =    -133.98022626 Ry
     estimated scf accuracy    <       0.00917857 Ry

     iteration #  2     ecut=    90.00 Ry     beta= 0.20
     Davidson diagonalization with overlap
     ethr =  2.09E-05,  avg # of iterations =  1.0

     total cpu time spent up to now is       70.0 secs

     total energy              =    -133.97902394 Ry
     estimated scf accuracy    <       0.00455650 Ry

     iteration #  3     ecut=    90.00 Ry     beta= 0.20
     Davidson diagonalization with overlap
     ethr =  1.04E-05,  avg # of iterations =  2.0

     total cpu time spent up to now is       70.3 secs

     total energy              =    -133.97953519 Ry
     estimated scf accuracy    <       0.00054298 Ry

     iteration #  4     ecut=    90.00 Ry     beta= 0.20
     Davidson diagonalization with overlap
     ethr =  1.23E-06,  avg # of iterations =  2.0

     total cpu time spent up to now is       70.6 secs

     total energy              =    -133.97963603 Ry
     estimated scf accuracy    <       0.00007372 Ry

     iteration #  5     ecut=    90.00 Ry     beta= 0.20
     Davidson diagonalization with overlap
     ethr =  1.68E-07,  avg # of iterations =  4.7

     total cpu time spent up to now is       70.8 secs

     total energy              =    -133.97964322 Ry
     estimated scf accuracy    <       0.00003897 Ry

     iteration #  6     ecut=    90.00 Ry     beta= 0.20
     Davidson diagonalization with overlap
     ethr =  8.86E-08,  avg # of iterations =  3.7

     total cpu time spent up to now is       71.1 secs

     total energy              =    -133.97964227 Ry
     estimated scf accuracy    <       0.00001645 Ry

     iteration #  7     ecut=    90.00 Ry     beta= 0.20
     Davidson diagonalization with overlap
     ethr =  3.74E-08,  avg # of iterations =  3.7

     total cpu time spent up to now is       71.4 secs

     total energy              =    -133.97964592 Ry
     estimated scf accuracy    <       0.00000118 Ry

     iteration #  8     ecut=    90.00 Ry     beta= 0.20
     Davidson diagonalization with overlap
     ethr =  2.69E-09,  avg # of iterations =  4.8

     total cpu time spent up to now is       71.7 secs

     total energy              =    -133.97964619 Ry
     estimated scf accuracy    <       0.00000062 Ry

     iteration #  9     ecut=    90.00 Ry     beta= 0.20
     Davidson diagonalization with overlap
     ethr =  1.40E-09,  avg # of iterations =  6.0

     total cpu time spent up to now is       72.0 secs

     total energy              =    -133.97964600 Ry
     estimated scf accuracy    <       0.00000128 Ry

     iteration # 10     ecut=    90.00 Ry     beta= 0.20
     Davidson diagonalization with overlap
     ethr =  1.40E-09,  avg # of iterations =  4.7

     total cpu time spent up to now is       72.3 secs

     total energy              =    -133.97964618 Ry
     estimated scf accuracy    <       0.00000007 Ry

     iteration # 11     ecut=    90.00 Ry     beta= 0.20
     Davidson diagonalization with overlap
     ethr =  1.50E-10,  avg # of iterations =  7.2

     total cpu time spent up to now is       72.8 secs

     total energy              =    -133.97964622 Ry
     estimated scf accuracy    <       0.00000023 Ry

     iteration # 12     ecut=    90.00 Ry     beta= 0.20
     Davidson diagonalization with overlap
     ethr =  1.50E-10,  avg # of iterations =  2.3

     total cpu time spent up to now is       73.0 secs

     total energy              =    -133.97964619 Ry
     estimated scf accuracy    <       0.00000010 Ry

     iteration # 13     ecut=    90.00 Ry     beta= 0.20
     Davidson diagonalization with overlap
     ethr =  1.50E-10,  avg # of iterations =  5.0

     total cpu time spent up to now is       73.4 secs

     total energy              =    -133.97964621 Ry
     estimated scf accuracy    <          4.1E-09 Ry

     iteration # 14     ecut=    90.00 Ry     beta= 0.20
     Davidson diagonalization with overlap
     ethr =  9.32E-12,  avg # of iterations =  6.3

     total cpu time spent up to now is       73.7 secs

     total energy              =    -133.97964621 Ry
     estimated scf accuracy    <       0.00000001 Ry

     iteration # 15     ecut=    90.00 Ry     beta= 0.20
     Davidson diagonalization with overlap
     ethr =  9.32E-12,  avg # of iterations =  3.8

     total cpu time spent up to now is       74.1 secs

     total energy              =    -133.97964621 Ry
     estimated scf accuracy    <          1.7E-09 Ry

     iteration # 16     ecut=    90.00 Ry     beta= 0.20
     Davidson diagonalization with overlap
     ethr =  3.81E-12,  avg # of iterations =  6.0

     total cpu time spent up to now is       74.4 secs

     End of self-consistent calculation

          k = 0.0000 0.0000 0.0000 ( 14623 PWs)   bands (ev):

   -17.9147 -17.6196 -15.2341 -15.2341 -11.2204 -11.1044  -8.7328  -8.2099
    -7.2521  -6.6734  -6.6734  -6.3355  -5.6685  -5.6685  -3.5455  -3.5455
    -0.8549  -0.8444  -0.0862   0.2480   0.8806   0.8806

          k = 0.0000 0.0000 0.4005 ( 14687 PWs)   bands (ev):

   -17.8074 -17.6309 -15.2102 -15.2102 -11.8032 -11.4492  -8.7871  -7.9888
    -6.9032  -6.9032  -6.0051  -5.6341  -5.6341  -5.5587  -3.5485  -3.5485
    -1.6821  -1.1182  -0.7219   0.1376   1.1271   1.1271

          k = 0.0000 0.3333 0.0000 ( 14674 PWs)   bands (ev):

   -17.8422 -17.6945 -15.2371 -15.2366 -11.1771 -11.1201  -8.5894  -8.2876
    -7.3632  -6.9718  -6.6374  -6.5989  -5.3335  -5.2500  -3.6711  -3.6636
    -0.6551  -0.5253  -0.2703   0.0129   0.9755   0.9840

          k = 0.0000 0.3333 0.4005 ( 14700 PWs)   bands (ev):

   -17.7604 -17.6718 -15.2211 -15.2203 -11.6996 -11.5200  -8.6481  -8.2527
    -6.9053  -6.9034  -6.0771  -5.9642  -5.3674  -5.2411  -3.6334  -3.6091
    -1.4543  -1.1700  -0.4385  -0.0010   1.0169   1.0306

          k = 0.3333 0.3333 0.0000 ( 14745 PWs)   bands (ev):

   -17.8018 -17.7277 -15.2466 -15.2431 -11.1611 -11.1323  -8.5841  -8.4320
    -7.1452  -6.7230  -6.6910  -6.6032  -5.6668  -5.2875  -3.7160  -3.6500
    -0.5597  -0.3625  -0.2765   0.0101   0.9741   1.0201

          k = 0.3333 0.3333 0.4005 ( 14669 PWs)   bands (ev):

   -17.7349 -17.6905 -15.2267 -15.2222 -11.6781 -11.5844  -8.5094  -8.2993
    -6.9281  -6.9171  -6.0135  -5.7758  -5.6475  -5.3013  -3.6422  -3.6026
    -1.4279  -1.2754  -0.2248   0.0084   0.9751   1.1086

     highest occupied level (ev):     1.1271

!    total energy              =    -133.97964621 Ry
     estimated scf accuracy    <          4.0E-10 Ry

     The total energy is the sum of the following terms:
     one-electron contribution =     -88.52433951 Ry
     hartree contribution      =      58.83295021 Ry
     xc contribution           =     -39.46546764 Ry
     ewald contribution        =     -64.75936499 Ry
     Dispersion Correction     =      -0.06342429 Ry

     convergence has been achieved in  16 iterations

     Forces acting on atoms (cartesian axes, Ry/au):

     atom    1 type  1   force =     0.00000000    0.00000000    0.00133719
     atom    2 type  1   force =     0.00000000    0.00000000   -0.00133719
     atom    3 type  2   force =     0.00000000    0.00000000   -0.01172367
     atom    4 type  2   force =     0.00000000    0.00000000    0.01172367
     atom    5 type  3   force =     0.00113555    0.00113555   -0.00357129
     atom    6 type  3   force =    -0.00113555   -0.00113555   -0.00357129
     atom    7 type  3   force =     0.00113555   -0.00113555    0.00357129
     atom    8 type  3   force =    -0.00113555    0.00113555    0.00357129
     atom    9 type  4   force =    -0.00452618   -0.00452618    0.00307514
     atom   10 type  4   force =     0.00452618    0.00452618    0.00307514
     atom   11 type  4   force =    -0.00452618    0.00452618   -0.00307514
     atom   12 type  4   force =     0.00452618   -0.00452618   -0.00307514
     atom   13 type  4   force =     0.00053060    0.00053060    0.00055862
     atom   14 type  4   force =    -0.00053060   -0.00053060    0.00055862
     atom   15 type  4   force =     0.00053060   -0.00053060   -0.00055862
     atom   16 type  4   force =    -0.00053060    0.00053060   -0.00055862

     Total force =     0.023346     Total SCF correction =     0.000025
     Energy error            =      1.3E-03 Ry
     Gradient error          =      1.2E-02 Ry/Bohr

     number of scf cycles    =  15
     number of bfgs steps    =  14

     energy             old  =    -133.9783212903 Ry
     energy             new  =    -133.9796462097 Ry

     CASE: energy            _new < energy            _old

     new trust radius        =       0.0988363598 bohr
     new conv_thr            =       0.0000000012 Ry


ATOMIC_POSITIONS (crystal)
C                0.0000000000        0.5000000000        0.3046366107
C                0.5000000000        0.0000000000        0.6953633643
O                0.0000000000        0.5000000000        0.6024645750
O                0.5000000000        0.0000000000        0.3975354250
N                0.1451249668        0.6451249148        0.1508221680
N                0.8548750012        0.3548750852        0.1508221680
N                0.6451249148        0.8548750012        0.8491778450
N                0.3548750852        0.1451249668        0.8491778450
H                0.2622069576        0.7622069366        0.2458438466
H                0.7377930214        0.2377930424        0.2458438466
H                0.7622069366        0.7377930214        0.7541561284
H                0.2377930424        0.2622069576        0.7541561284
H                0.1307304052        0.6307304162        0.9283079935
H                0.8692695838        0.3692695838        0.9283079935
H                0.6307304162        0.8692695838        0.0716920095
H                0.3692695838        0.1307304052        0.0716920095



     Writing config-only to output data dir /tmp/ceresoli/urea.save/ :
     XML data file
     NEW-OLD atomic charge density approx. for the potential

     total cpu time spent up to now is       74.5 secs

     Self-consistent Calculation

     iteration #  1     ecut=    90.00 Ry     beta= 0.20
     Davidson diagonalization with overlap
     ethr =  1.00E-06,  avg # of iterations = 10.7

     total cpu time spent up to now is       75.4 secs

     total energy              =    -133.98198739 Ry
     estimated scf accuracy    <       0.01773242 Ry

     iteration #  2     ecut=    90.00 Ry     beta= 0.20
     Davidson diagonalization with overlap
     ethr =  4.03E-05,  avg # of iterations =  1.0

     total cpu time spent up to now is       75.6 secs

     total energy              =    -133.97979430 Ry
     estimated scf accuracy    <       0.00915391 Ry

     iteration #  3     ecut=    90.00 Ry     beta= 0.20
     Davidson diagonalization with overlap
     ethr =  2.08E-05,  avg # of iterations =  2.0

     total cpu time spent up to now is       75.8 secs

     total energy              =    -133.98073936 Ry
     estimated scf accuracy    <       0.00100838 Ry

     iteration #  4     ecut=    90.00 Ry     beta= 0.20
     Davidson diagonalization with overlap
     ethr =  2.29E-06,  avg # of iterations =  2.5

     total cpu time spent up to now is       76.2 secs

     total energy              =    -133.98094435 Ry
     estimated scf accuracy    <       0.00013805 Ry

     iteration #  5     ecut=    90.00 Ry     beta= 0.20
     Davidson diagonalization with overlap
     ethr =  3.14E-07,  avg # of iterations =  5.7

     total cpu time spent up to now is       76.4 secs

     total energy              =    -133.98096852 Ry
     estimated scf accuracy    <       0.00007390 Ry

     iteration #  6     ecut=    90.00 Ry     beta= 0.20
     Davidson diagonalization with overlap
     ethr =  1.68E-07,  avg # of iterations =  1.5

     total cpu time spent up to now is       76.7 secs

     total energy              =    -133.98095796 Ry
     estimated scf accuracy    <       0.00004469 Ry

     iteration #  7     ecut=    90.00 Ry     beta= 0.20
     Davidson diagonalization with overlap
     ethr =  1.02E-07,  avg # of iterations =  4.2

     total cpu time spent up to now is       77.0 secs

     total energy              =    -133.98096842 Ry
     estimated scf accuracy    <       0.00000398 Ry

     iteration #  8     ecut=    90.00 Ry     beta= 0.20
     Davidson diagonalization with overlap
     ethr =  9.06E-09,  avg # of iterations =  4.2

     total cpu time spent up to now is       77.2 secs

     total energy              =    -133.98096818 Ry
     estimated scf accuracy    <       0.00000237 Ry

     iteration #  9     ecut=    90.00 Ry     beta= 0.20
     Davidson diagonalization with overlap
     ethr =  5.38E-09,  avg # of iterations =  6.5

     total cpu time spent up to now is       77.7 secs

     total energy              =    -133.98096767 Ry
     estimated scf accuracy    <       0.00001061 Ry

     iteration # 10     ecut=    90.00 Ry     beta= 0.20
     Davidson diagonalization with overlap
     ethr =  5.38E-09,  avg # of iterations =  5.5

     total cpu time spent up to now is       78.0 secs

     total energy              =    -133.98096858 Ry
     estimated scf accuracy    <       0.00000064 Ry

     iteration # 11     ecut=    90.00 Ry     beta= 0.20
     Davidson diagonalization with overlap
     ethr =  1.46E-09,  avg # of iterations =  5.2

     total cpu time spent up to now is       78.4 secs

     total energy              =    -133.98096896 Ry
     estimated scf accuracy    <       0.00000034 Ry

     iteration # 12     ecut=    90.00 Ry     beta= 0.20
     Davidson diagonalization with overlap
     ethr =  7.81E-10,  avg # of iterations =  1.2

     total cpu time spent up to now is       78.6 secs

     total energy              =    -133.98096885 Ry
     estimated scf accuracy    <       0.00000028 Ry

     iteration # 13     ecut=    90.00 Ry     beta= 0.20
     Davidson diagonalization with overlap
     ethr =  6.28E-10,  avg # of iterations =  3.2

     total cpu time spent up to now is       78.9 secs

     total energy              =    -133.98096890 Ry
     estimated scf accuracy    <          7.4E-09 Ry

     iteration # 14     ecut=    90.00 Ry     beta= 0.20
     Davidson diagonalization with overlap
     ethr =  1.68E-11,  avg # of iterations =  6.3

     total cpu time spent up to now is       79.3 secs

     total energy              =    -133.98096890 Ry
     estimated scf accuracy    <          1.5E-09 Ry

     iteration # 15     ecut=    90.00 Ry     beta= 0.20
     Davidson diagonalization with overlap
     ethr =  3.43E-12,  avg # of iterations =  2.5

     total cpu time spent up to now is       79.5 secs

     End of self-consistent calculation

          k = 0.0000 0.0000 0.0000 ( 14623 PWs)   bands (ev):

   -17.9511 -17.6535 -15.2282 -15.2282 -11.1671 -11.1045  -8.7071  -8.2901
    -7.3237  -6.6345  -6.6345  -6.4372  -5.6492  -5.6492  -3.5568  -3.5568
    -0.8644  -0.8566  -0.0825   0.2877   0.8566   0.8566

          k = 0.0000 0.0000 0.4005 ( 14687 PWs)   bands (ev):

   -17.8494 -17.6580 -15.2041 -15.2041 -11.7762 -11.4659  -8.7841  -8.0300
    -6.8770  -6.8770  -6.0483  -5.6290  -5.6011  -5.6011  -3.5628  -3.5628
    -1.7194  -1.1469  -0.7432   0.1916   1.1109   1.1109

          k = 0.0000 0.3333 0.0000 ( 14674 PWs)   bands (ev):

   -17.8781 -17.7292 -15.2307 -15.2302 -11.1398 -11.1095  -8.5751  -8.3207
    -7.4312  -7.0202  -6.6113  -6.5919  -5.3347  -5.2637  -3.6775  -3.6726
    -0.6679  -0.5233  -0.2786   0.0393   0.9522   0.9601

          k = 0.0000 0.3333 0.4005 ( 14700 PWs)   bands (ev):

   -17.7992 -17.7032 -15.2140 -15.2132 -11.6847 -11.5272  -8.6477  -8.2722
    -6.8777  -6.8759  -6.1181  -5.9970  -5.3567  -5.2536  -3.6421  -3.6205
    -1.4963  -1.2085  -0.4446   0.0293   1.0187   1.0306

          k = 0.3333 0.3333 0.0000 ( 14745 PWs)   bands (ev):

   -17.8375 -17.7627 -15.2407 -15.2367 -11.1295 -11.1142  -8.5896  -8.4499
    -7.2114  -6.7982  -6.6533  -6.6037  -5.6468  -5.2950  -3.7208  -3.6569
    -0.5677  -0.3679  -0.2714   0.0268   0.9507   0.9749

          k = 0.3333 0.3333 0.4005 ( 14669 PWs)   bands (ev):

   -17.7718 -17.7236 -15.2195 -15.2160 -11.6668 -11.5841  -8.5168  -8.3190
    -6.9030  -6.8902  -6.0512  -5.8337  -5.6121  -5.3037  -3.6517  -3.6165
    -1.4633  -1.3118  -0.2242   0.0279   0.9758   1.0947

     highest occupied level (ev):     1.1109

!    total energy              =    -133.98096890 Ry
     estimated scf accuracy    <          1.0E-09 Ry

     The total energy is the sum of the following terms:
     one-electron contribution =     -89.20635435 Ry
     hartree contribution      =      59.16568177 Ry
     xc contribution           =     -39.47242736 Ry
     ewald contribution        =     -64.40389186 Ry
     Dispersion Correction     =      -0.06397710 Ry

     convergence has been achieved in  15 iterations

     Forces acting on atoms (cartesian axes, Ry/au):

     atom    1 type  1   force =     0.00000000    0.00000000    0.00147722
     atom    2 type  1   force =     0.00000000    0.00000000   -0.00147722
     atom    3 type  2   force =     0.00000000    0.00000000   -0.01376053
     atom    4 type  2   force =     0.00000000    0.00000000    0.01376053
     atom    5 type  3   force =     0.00234920    0.00234920   -0.00169116
     atom    6 type  3   force =    -0.00234920   -0.00234920   -0.00169116
     atom    7 type  3   force =     0.00234920   -0.00234920    0.00169116
     atom    8 type  3   force =    -0.00234920    0.00234920    0.00169116
     atom    9 type  4   force =    -0.00259362   -0.00259362    0.00205841
     atom   10 type  4   force =     0.00259362    0.00259362    0.00205841
     atom   11 type  4   force =    -0.00259362    0.00259362   -0.00205841
     atom   12 type  4   force =     0.00259362   -0.00259362   -0.00205841
     atom   13 type  4   force =     0.00298531    0.00298531    0.00232719
     atom   14 type  4   force =    -0.00298531   -0.00298531    0.00232719
     atom   15 type  4   force =     0.00298531   -0.00298531   -0.00232719
     atom   16 type  4   force =    -0.00298531    0.00298531   -0.00232719

     Total force =     0.024543     Total SCF correction =     0.000039
     Energy error            =      1.3E-03 Ry
     Gradient error          =      1.4E-02 Ry/Bohr

     number of scf cycles    =  16
     number of bfgs steps    =  15

     energy             old  =    -133.9796462097 Ry
     energy             new  =    -133.9809689006 Ry

     CASE: energy            _new < energy            _old

     new trust radius        =       0.0331836157 bohr
     new conv_thr            =       0.0000000013 Ry


ATOMIC_POSITIONS (crystal)
C                0.0000000000        0.5000000000        0.3013776955
C                0.5000000000        0.0000000000        0.6986222795
O                0.0000000000        0.5000000000        0.5987379168
O                0.5000000000        0.0000000000        0.4012620832
N                0.1449354930        0.6449354410        0.1475063812
N                0.8550644750        0.3550645590        0.1475063812
N                0.6449354410        0.8550644750        0.8524936318
N                0.3550645590        0.1449354930        0.8524936318
H                0.2612244717        0.7612244507        0.2439303163
H                0.7387755073        0.2387755283        0.2439303163
H                0.7612244507        0.7387755073        0.7560696587
H                0.2387755283        0.2612244717        0.7560696587
H                0.1302084914        0.6302085024        0.9251037029
H                0.8697914976        0.3697914976        0.9251037029
H                0.6302085024        0.8697914976        0.0748963001
H                0.3697914976        0.1302084914        0.0748963001



     Writing config-only to output data dir /tmp/ceresoli/urea.save/ :
     XML data file
     NEW-OLD atomic charge density approx. for the potential

     total cpu time spent up to now is       79.6 secs

     Self-consistent Calculation

     iteration #  1     ecut=    90.00 Ry     beta= 0.20
     Davidson diagonalization with overlap
     ethr =  1.00E-06,  avg # of iterations =  7.0

     total cpu time spent up to now is       80.3 secs

     total energy              =    -133.98151955 Ry
     estimated scf accuracy    <       0.00134122 Ry

     iteration #  2     ecut=    90.00 Ry     beta= 0.20
     Davidson diagonalization with overlap
     ethr =  3.05E-06,  avg # of iterations =  1.0

     total cpu time spent up to now is       80.5 secs

     total energy              =    -133.98140878 Ry
     estimated scf accuracy    <       0.00076231 Ry

     iteration #  3     ecut=    90.00 Ry     beta= 0.20
     Davidson diagonalization with overlap
     ethr =  1.73E-06,  avg # of iterations =  2.0

     total cpu time spent up to now is       80.8 secs

     total energy              =    -133.98146924 Ry
     estimated scf accuracy    <       0.00006758 Ry

     iteration #  4     ecut=    90.00 Ry     beta= 0.20
     Davidson diagonalization with overlap
     ethr =  1.54E-07,  avg # of iterations =  4.3

     total cpu time spent up to now is       81.1 secs

     total energy              =    -133.98149052 Ry
     estimated scf accuracy    <       0.00001593 Ry

     iteration #  5     ecut=    90.00 Ry     beta= 0.20
     Davidson diagonalization with overlap
     ethr =  3.62E-08,  avg # of iterations =  3.5

     total cpu time spent up to now is       81.3 secs

     total energy              =    -133.98149117 Ry
     estimated scf accuracy    <       0.00000402 Ry

     iteration #  6     ecut=    90.00 Ry     beta= 0.20
     Davidson diagonalization with overlap
     ethr =  9.13E-09,  avg # of iterations =  5.5

     total cpu time spent up to now is       81.7 secs

     total energy              =    -133.98149055 Ry
     estimated scf accuracy    <       0.00000539 Ry

     iteration #  7     ecut=    90.00 Ry     beta= 0.20
     Davidson diagonalization with overlap
     ethr =  9.13E-09,  avg # of iterations =  5.7

     total cpu time spent up to now is       82.1 secs

     total energy              =    -133.98149256 Ry
     estimated scf accuracy    <       0.00000540 Ry

     iteration #  8     ecut=    90.00 Ry     beta= 0.20
     Davidson diagonalization with overlap
     ethr =  9.13E-09,  avg # of iterations =  2.0

     total cpu time spent up to now is       82.4 secs

     total energy              =    -133.98149255 Ry
     estimated scf accuracy    <       0.00000105 Ry

     iteration #  9     ecut=    90.00 Ry     beta= 0.20
     Davidson diagonalization with overlap
     ethr =  2.38E-09,  avg # of iterations =  6.3

     total cpu time spent up to now is       82.7 secs

     total energy              =    -133.98149293 Ry
     estimated scf accuracy    <       0.00000006 Ry

     iteration # 10     ecut=    90.00 Ry     beta= 0.20
     Davidson diagonalization with overlap
     ethr =  1.30E-10,  avg # of iterations =  4.8

     total cpu time spent up to now is       83.0 secs

     total energy              =    -133.98149294 Ry
     estimated scf accuracy    <       0.00000010 Ry

     iteration # 11     ecut=    90.00 Ry     beta= 0.20
     Davidson diagonalization with overlap
     ethr =  1.30E-10,  avg # of iterations =  1.0

     total cpu time spent up to now is       83.2 secs

     total energy              =    -133.98149289 Ry
     estimated scf accuracy    <       0.00000010 Ry

     iteration # 12     ecut=    90.00 Ry     beta= 0.20
     Davidson diagonalization with overlap
     ethr =  1.30E-10,  avg # of iterations =  5.8

     total cpu time spent up to now is       83.6 secs

     total energy              =    -133.98149292 Ry
     estimated scf accuracy    <          9.5E-09 Ry

     iteration # 13     ecut=    90.00 Ry     beta= 0.20
     Davidson diagonalization with overlap
     ethr =  2.16E-11,  avg # of iterations =  2.5

     total cpu time spent up to now is       83.8 secs

     total energy              =    -133.98149292 Ry
     estimated scf accuracy    <          4.1E-09 Ry

     iteration # 14     ecut=    90.00 Ry     beta= 0.20
     Davidson diagonalization with overlap
     ethr =  9.33E-12,  avg # of iterations =  2.5

     total cpu time spent up to now is       84.1 secs

     total energy              =    -133.98149292 Ry
     estimated scf accuracy    <          2.0E-09 Ry

     iteration # 15     ecut=    90.00 Ry     beta= 0.20
     Davidson diagonalization with overlap
     ethr =  4.62E-12,  avg # of iterations =  4.8

     total cpu time spent up to now is       84.4 secs

     End of self-consistent calculation

          k = 0.0000 0.0000 0.0000 ( 14623 PWs)   bands (ev):

   -17.9754 -17.6774 -15.2455 -15.2455 -11.1654 -11.1213  -8.6964  -8.3297
    -7.3312  -6.6361  -6.6361  -6.4749  -5.6572  -5.6572  -3.5705  -3.5705
    -0.8742  -0.8639  -0.0911   0.2942   0.8571   0.8571

          k = 0.0000 0.0000 0.4005 ( 14687 PWs)   bands (ev):

   -17.8760 -17.6801 -15.2214 -15.2214 -11.7758 -11.4813  -8.7897  -8.0552
    -6.8819  -6.8819  -6.0642  -5.6589  -5.6041  -5.6041  -3.5768  -3.5768
    -1.7221  -1.1555  -0.7566   0.2025   1.1082   1.1082

          k = 0.0000 0.3333 0.0000 ( 14674 PWs)   bands (ev):

   -17.9023 -17.7532 -15.2477 -15.2473 -11.1438 -11.1228  -8.5717  -8.3436
    -7.4398  -7.0366  -6.6172  -6.6024  -5.3503  -5.2841  -3.6889  -3.6850
    -0.6761  -0.5291  -0.2887   0.0421   0.9527   0.9602

          k = 0.0000 0.3333 0.4005 ( 14700 PWs)   bands (ev):

   -17.8248 -17.7266 -15.2308 -15.2300 -11.6889 -11.5395  -8.6549  -8.2887
    -6.8819  -6.8803  -6.1351  -6.0141  -5.3673  -5.2718  -3.6539  -3.6334
    -1.5032  -1.2187  -0.4531   0.0325   1.0233   1.0346

          k = 0.3333 0.3333 0.0000 ( 14745 PWs)   bands (ev):

   -17.8616 -17.7868 -15.2579 -15.2537 -11.1355 -11.1249  -8.5931  -8.4614
    -7.2267  -6.8250  -6.6552  -6.6137  -5.6550  -5.3130  -3.7315  -3.6686
    -0.5758  -0.3767  -0.2764   0.0259   0.9514   0.9682

          k = 0.3333 0.3333 0.4005 ( 14669 PWs)   bands (ev):

   -17.7968 -17.7476 -15.2363 -15.2333 -11.6721 -11.5935  -8.5276  -8.3351
    -6.9083  -6.8947  -6.0682  -5.8574  -5.6142  -5.3181  -3.6638  -3.6304
    -1.4691  -1.3199  -0.2307   0.0274   0.9798   1.0924

     highest occupied level (ev):     1.1082

!    total energy              =    -133.98149292 Ry
     estimated scf accuracy    <          2.7E-10 Ry

     The total energy is the sum of the following terms:
     one-electron contribution =     -89.59412479 Ry
     hartree contribution      =      59.35209008 Ry
     xc contribution           =     -39.48768620 Ry
     ewald contribution        =     -64.18766765 Ry
     Dispersion Correction     =      -0.06410436 Ry

     convergence has been achieved in  15 iterations

     Forces acting on atoms (cartesian axes, Ry/au):

     atom    1 type  1   force =     0.00000000    0.00000000    0.00012511
     atom    2 type  1   force =     0.00000000    0.00000000   -0.00012511
     atom    3 type  2   force =     0.00000000    0.00000000   -0.01009638
     atom    4 type  2   force =     0.00000000    0.00000000    0.01009638
     atom    5 type  3   force =     0.00166148    0.00166148   -0.00191004
     atom    6 type  3   force =    -0.00166148   -0.00166148   -0.00191004
     atom    7 type  3   force =     0.00166148   -0.00166148    0.00191004
     atom    8 type  3   force =    -0.00166148    0.00166148    0.00191004
     atom    9 type  4   force =    -0.00035547   -0.00035547    0.00175643
     atom   10 type  4   force =     0.00035547    0.00035547    0.00175643
     atom   11 type  4   force =    -0.00035547    0.00035547   -0.00175643
     atom   12 type  4   force =     0.00035547   -0.00035547   -0.00175643
     atom   13 type  4   force =     0.00393233    0.00393233    0.00190359
     atom   14 type  4   force =    -0.00393233   -0.00393233    0.00190359
     atom   15 type  4   force =     0.00393233   -0.00393233   -0.00190359
     atom   16 type  4   force =    -0.00393233    0.00393233   -0.00190359

     Total force =     0.019802     Total SCF correction =     0.000016
     Energy error            =      5.2E-04 Ry
     Gradient error          =      1.0E-02 Ry/Bohr

     number of scf cycles    =  17
     number of bfgs steps    =  16

     energy             old  =    -133.9809689006 Ry
     energy             new  =    -133.9814929212 Ry

     CASE: energy            _new < energy            _old

     new trust radius        =       0.0365019773 bohr
     new conv_thr            =       0.0000000005 Ry


ATOMIC_POSITIONS (crystal)
C                0.0000000000        0.5000000000        0.2980939529
C                0.5000000000        0.0000000000        0.7019060221
O                0.0000000000        0.5000000000        0.5946385927
O                0.5000000000        0.0000000000        0.4053614073
N                0.1448740703        0.6448740183        0.1445379234
N                0.8551258977        0.3551259817        0.1445379234
N                0.6448740183        0.8551258977        0.8554620896
N                0.3551259817        0.1448740703        0.8554620896
H                0.2603238787        0.7603238577        0.2428152912
H                0.7396761003        0.2396761213        0.2428152912
H                0.7603238577        0.7396761003        0.7571846838
H                0.2396761213        0.2603238787        0.7571846838
H                0.1302529549        0.6302529659        0.9225383014
H                0.8697470341        0.3697470341        0.9225383014
H                0.6302529659        0.8697470341        0.0774617016
H                0.3697470341        0.1302529549        0.0774617016



     Writing config-only to output data dir /tmp/ceresoli/urea.save/ :
     XML data file
     NEW-OLD atomic charge density approx. for the potential

     total cpu time spent up to now is       84.5 secs

     Self-consistent Calculation

     iteration #  1     ecut=    90.00 Ry     beta= 0.20
     Davidson diagonalization with overlap
     ethr =  1.00E-06,  avg # of iterations =  7.0

     total cpu time spent up to now is       85.2 secs

     total energy              =    -133.98202846 Ry
     estimated scf accuracy    <       0.00096608 Ry

     iteration #  2     ecut=    90.00 Ry     beta= 0.20
     Davidson diagonalization with overlap
     ethr =  2.20E-06,  avg # of iterations =  1.0

     total cpu time spent up to now is       85.4 secs

     total energy              =    -133.98197932 Ry
     estimated scf accuracy    <       0.00056079 Ry

     iteration #  3     ecut=    90.00 Ry     beta= 0.20
     Davidson diagonalization with overlap
     ethr =  1.27E-06,  avg # of iterations =  2.0

     total cpu time spent up to now is       85.7 secs

     total energy              =    -133.98201895 Ry
     estimated scf accuracy    <       0.00004757 Ry

     iteration #  4     ecut=    90.00 Ry     beta= 0.20
     Davidson diagonalization with overlap
     ethr =  1.08E-07,  avg # of iterations =  5.0

     total cpu time spent up to now is       86.0 secs

     total energy              =    -133.98203567 Ry
     estimated scf accuracy    <       0.00000614 Ry

     iteration #  5     ecut=    90.00 Ry     beta= 0.20
     Davidson diagonalization with overlap
     ethr =  1.39E-08,  avg # of iterations =  5.0

     total cpu time spent up to now is       86.3 secs

     total energy              =    -133.98203706 Ry
     estimated scf accuracy    <       0.00000231 Ry

     iteration #  6     ecut=    90.00 Ry     beta= 0.20
     Davidson diagonalization with overlap
     ethr =  5.25E-09,  avg # of iterations =  1.7

     total cpu time spent up to now is       86.5 secs

     total energy              =    -133.98203728 Ry
     estimated scf accuracy    <       0.00000055 Ry

     iteration #  7     ecut=    90.00 Ry     beta= 0.20
     Davidson diagonalization with overlap
     ethr =  1.24E-09,  avg # of iterations =  3.0

     total cpu time spent up to now is       86.8 secs

     total energy              =    -133.98203734 Ry
     estimated scf accuracy    <       0.00000011 Ry

     iteration #  8     ecut=    90.00 Ry     beta= 0.20
     Davidson diagonalization with overlap
     ethr =  2.47E-10,  avg # of iterations =  6.0

     total cpu time spent up to now is       87.1 secs

     total energy              =    -133.98203737 Ry
     estimated scf accuracy    <       0.00000004 Ry

     iteration #  9     ecut=    90.00 Ry     beta= 0.20
     Davidson diagonalization with overlap
     ethr =  7.99E-11,  avg # of iterations =  5.7

     total cpu time spent up to now is       87.5 secs

     total energy              =    -133.98203738 Ry
     estimated scf accuracy    <          5.5E-09 Ry

     iteration # 10     ecut=    90.00 Ry     beta= 0.20
     Davidson diagonalization with overlap
     ethr =  1.26E-11,  avg # of iterations =  4.5

     total cpu time spent up to now is       87.8 secs

     total energy              =    -133.98203738 Ry
     estimated scf accuracy    <          3.9E-09 Ry

     iteration # 11     ecut=    90.00 Ry     beta= 0.20
     Davidson diagonalization with overlap
     ethr =  8.90E-12,  avg # of iterations =  5.8

     total cpu time spent up to now is       88.1 secs

     total energy              =    -133.98203738 Ry
     estimated scf accuracy    <          3.0E-09 Ry

     iteration # 12     ecut=    90.00 Ry     beta= 0.20
     Davidson diagonalization with overlap
     ethr =  6.88E-12,  avg # of iterations =  2.5

     total cpu time spent up to now is       88.4 secs

     End of self-consistent calculation

          k = 0.0000 0.0000 0.0000 ( 14623 PWs)   bands (ev):

   -18.0012 -17.7027 -15.2715 -15.2715 -11.1773 -11.1510  -8.6815  -8.3616
    -7.3262  -6.6564  -6.6564  -6.4963  -5.6684  -5.6684  -3.5868  -3.5868
    -0.8884  -0.8773  -0.1053   0.2954   0.8653   0.8653

          k = 0.0000 0.0000 0.4005 ( 14687 PWs)   bands (ev):

   -17.9041 -17.7043 -15.2476 -15.2476 -11.7829 -11.5028  -8.7917  -8.0751
    -6.9033  -6.9033  -6.0794  -5.6850  -5.6106  -5.6106  -3.5941  -3.5941
    -1.7173  -1.1586  -0.7739   0.2076   1.1086   1.1086

          k = 0.0000 0.3333 0.0000 ( 14674 PWs)   bands (ev):

   -17.9281 -17.7787 -15.2735 -15.2731 -11.1613 -11.1491  -8.5651  -8.3627
    -7.4335  -7.0403  -6.6413  -6.6295  -5.3679  -5.3053  -3.7033  -3.7003
    -0.6894  -0.5395  -0.3032   0.0403   0.9612   0.9681

          k = 0.0000 0.3333 0.4005 ( 14700 PWs)   bands (ev):

   -17.8521 -17.7518 -15.2565 -15.2558 -11.7005 -11.5584  -8.6582  -8.3005
    -6.9025  -6.9010  -6.1505  -6.0293  -5.3817  -5.2923  -3.6690  -3.6494
    -1.5023  -1.2222  -0.4658   0.0305   1.0303   1.0412

          k = 0.3333 0.3333 0.0000 ( 14745 PWs)   bands (ev):

   -17.8873 -17.8123 -15.2839 -15.2795 -11.1550 -11.1487  -8.5918  -8.4687
    -7.2277  -6.8385  -6.6756  -6.6397  -5.6665  -5.3325  -3.7452  -3.6829
    -0.5893  -0.3906  -0.2859   0.0203   0.9607   0.9703

          k = 0.3333 0.3333 0.4005 ( 14669 PWs)   bands (ev):

   -17.8236 -17.7733 -15.2620 -15.2595 -11.6844 -11.6097  -8.5342  -8.3468
    -6.9299  -6.9155  -6.0833  -5.8788  -5.6201  -5.3356  -3.6792  -3.6475
    -1.4679  -1.3211  -0.2416   0.0221   0.9862   1.0929

     highest occupied level (ev):     1.1086

!    total energy              =    -133.98203738 Ry
     estimated scf accuracy    <          4.5E-10 Ry

     The total energy is the sum of the following terms:
     one-electron contribution =     -89.98693153 Ry
     hartree contribution      =      59.53926029 Ry
     xc contribution           =     -39.50706371 Ry
     ewald contribution        =     -63.96308831 Ry
     Dispersion Correction     =      -0.06421413 Ry

     convergence has been achieved in  12 iterations

     Forces acting on atoms (cartesian axes, Ry/au):

     atom    1 type  1   force =     0.00000000    0.00000000   -0.00263711
     atom    2 type  1   force =     0.00000000    0.00000000    0.00263711
     atom    3 type  2   force =     0.00000000    0.00000000   -0.00337342
     atom    4 type  2   force =     0.00000000    0.00000000    0.00337342
     atom    5 type  3   force =     0.00148628    0.00148628   -0.00097653
     atom    6 type  3   force =    -0.00148628   -0.00148628   -0.00097653
     atom    7 type  3   force =     0.00148628   -0.00148628    0.00097653
     atom    8 type  3   force =    -0.00148628    0.00148628    0.00097653
     atom    9 type  4   force =     0.00147089    0.00147089    0.00106690
     atom   10 type  4   force =    -0.00147089   -0.00147089    0.00106690
     atom   11 type  4   force =     0.00147089   -0.00147089   -0.00106690
     atom   12 type  4   force =    -0.00147089    0.00147089   -0.00106690
     atom   13 type  4   force =     0.00447145    0.00447145   -0.00008782
     atom   14 type  4   force =    -0.00447145   -0.00447145   -0.00008782
     atom   15 type  4   force =     0.00447145   -0.00447145    0.00008782
     atom   16 type  4   force =    -0.00447145    0.00447145    0.00008782

     Total force =     0.015492     Total SCF correction =     0.000035
     Energy error            =      5.4E-04 Ry
     Gradient error          =      4.5E-03 Ry/Bohr

     number of scf cycles    =  18
     number of bfgs steps    =  17

     energy             old  =    -133.9814929212 Ry
     energy             new  =    -133.9820373767 Ry

     CASE: energy            _new < energy            _old

     new trust radius        =       0.0423315463 bohr
     new conv_thr            =       0.0000000004 Ry


ATOMIC_POSITIONS (crystal)
C                0.0000000000        0.5000000000        0.2942746656
C                0.5000000000        0.0000000000        0.7057253094
O                0.0000000000        0.5000000000        0.5898845838
O                0.5000000000        0.0000000000        0.4101154162
N                0.1450990921        0.6450990401        0.1415898242
N                0.8549008759        0.3549009599        0.1415898242
N                0.6450990401        0.8549008759        0.8584101888
N                0.3549009599        0.1450990921        0.8584101888
H                0.2596114979        0.7596114769        0.2420984857
H                0.7403884811        0.2403885021        0.2420984857
H                0.7596114769        0.7403884811        0.7579014893
H                0.2403885021        0.2596114979        0.7579014893
H                0.1310897120        0.6310897230        0.9201046496
H                0.8689102770        0.3689102770        0.9201046496
H                0.6310897230        0.8689102770        0.0798953534
H                0.3689102770        0.1310897120        0.0798953534



     Writing config-only to output data dir /tmp/ceresoli/urea.save/ :
     XML data file
     NEW-OLD atomic charge density approx. for the potential

     total cpu time spent up to now is       88.6 secs

     Self-consistent Calculation

     iteration #  1     ecut=    90.00 Ry     beta= 0.20
     Davidson diagonalization with overlap
     ethr =  1.00E-06,  avg # of iterations =  7.0

     total cpu time spent up to now is       89.2 secs

     total energy              =    -133.98264111 Ry
     estimated scf accuracy    <       0.00133389 Ry

     iteration #  2     ecut=    90.00 Ry     beta= 0.20
     Davidson diagonalization with overlap
     ethr =  3.03E-06,  avg # of iterations =  1.0

     total cpu time spent up to now is       89.4 secs

     total energy              =    -133.98254734 Ry
     estimated scf accuracy    <       0.00074909 Ry

     iteration #  3     ecut=    90.00 Ry     beta= 0.20
     Davidson diagonalization with overlap
     ethr =  1.70E-06,  avg # of iterations =  2.0

     total cpu time spent up to now is       89.7 secs

     total energy              =    -133.98260277 Ry
     estimated scf accuracy    <       0.00007560 Ry

     iteration #  4     ecut=    90.00 Ry     beta= 0.20
     Davidson diagonalization with overlap
     ethr =  1.72E-07,  avg # of iterations =  4.2

     total cpu time spent up to now is       90.0 secs

     total energy              =    -133.98262170 Ry
     estimated scf accuracy    <       0.00000554 Ry

     iteration #  5     ecut=    90.00 Ry     beta= 0.20
     Davidson diagonalization with overlap
     ethr =  1.26E-08,  avg # of iterations =  6.7

     total cpu time spent up to now is       90.3 secs

     total energy              =    -133.98262530 Ry
     estimated scf accuracy    <       0.00000299 Ry

     iteration #  6     ecut=    90.00 Ry     beta= 0.20
     Davidson diagonalization with overlap
     ethr =  6.80E-09,  avg # of iterations =  1.5

     total cpu time spent up to now is       90.6 secs

     total energy              =    -133.98262557 Ry
     estimated scf accuracy    <       0.00000072 Ry

     iteration #  7     ecut=    90.00 Ry     beta= 0.20
     Davidson diagonalization with overlap
     ethr =  1.65E-09,  avg # of iterations =  2.0

     total cpu time spent up to now is       90.8 secs

     total energy              =    -133.98262563 Ry
     estimated scf accuracy    <       0.00000010 Ry

     iteration #  8     ecut=    90.00 Ry     beta= 0.20
     Davidson diagonalization with overlap
     ethr =  2.25E-10,  avg # of iterations =  4.8

     total cpu time spent up to now is       91.1 secs

     total energy              =    -133.98262566 Ry
     estimated scf accuracy    <          8.9E-09 Ry

     iteration #  9     ecut=    90.00 Ry     beta= 0.20
     Davidson diagonalization with overlap
     ethr =  2.02E-11,  avg # of iterations =  6.7

     total cpu time spent up to now is       91.5 secs

     total energy              =    -133.98262567 Ry
     estimated scf accuracy    <          4.7E-09 Ry

     iteration # 10     ecut=    90.00 Ry     beta= 0.20
     Davidson diagonalization with overlap
     ethr =  1.06E-11,  avg # of iterations =  6.5

     total cpu time spent up to now is       91.9 secs

     total energy              =    -133.98262567 Ry
     estimated scf accuracy    <          7.0E-09 Ry

     iteration # 11     ecut=    90.00 Ry     beta= 0.20
     Davidson diagonalization with overlap
     ethr =  1.06E-11,  avg # of iterations =  4.3

     total cpu time spent up to now is       92.2 secs

     total energy              =    -133.98262567 Ry
     estimated scf accuracy    <          6.1E-10 Ry

     iteration # 12     ecut=    90.00 Ry     beta= 0.20
     Davidson diagonalization with overlap
     ethr =  1.39E-12,  avg # of iterations =  4.0

     total cpu time spent up to now is       92.5 secs

     End of self-consistent calculation

          k = 0.0000 0.0000 0.0000 ( 14623 PWs)   bands (ev):

   -18.0198 -17.7191 -15.3064 -15.3064 -11.1945 -11.1841  -8.6601  -8.3869
    -7.3030  -6.6906  -6.6906  -6.4965  -5.6880  -5.6880  -3.6007  -3.6007
    -0.9104  -0.8951  -0.1224   0.2918   0.8808   0.8808

          k = 0.0000 0.0000 0.4005 ( 14687 PWs)   bands (ev):

   -17.9250 -17.7200 -15.2828 -15.2828 -11.7897 -11.5207  -8.7943  -8.0886
    -6.9360  -6.9360  -6.0851  -5.6988  -5.6273  -5.6273  -3.6089  -3.6089
    -1.7046  -1.1543  -0.7991   0.2075   1.1141   1.1141

          k = 0.0000 0.3333 0.0000 ( 14674 PWs)   bands (ev):

   -17.9462 -17.7957 -15.3082 -15.3078 -11.1837 -11.1794  -8.5537  -8.3782
    -7.4082  -7.0276  -6.6784  -6.6683  -5.3927  -5.3322  -3.7150  -3.7129
    -0.7063  -0.5569  -0.3205   0.0333   0.9775   0.9838

          k = 0.0000 0.3333 0.4005 ( 14700 PWs)   bands (ev):

   -17.8718 -17.7690 -15.2912 -15.2905 -11.7112 -11.5749  -8.6605  -8.3080
    -6.9342  -6.9329  -6.1583  -6.0381  -5.4039  -5.3180  -3.6815  -3.6627
    -1.4932  -1.2177  -0.4856   0.0230   1.0424   1.0532

          k = 0.3333 0.3333 0.0000 ( 14745 PWs)   bands (ev):

   -17.9051 -17.8296 -15.3188 -15.3141 -11.1794 -11.1765  -8.5847  -8.4715
    -7.2104  -6.8337  -6.7098  -6.6766  -5.6866  -5.3585  -3.7562  -3.6950
    -0.6064  -0.4078  -0.3018   0.0091   0.9785   0.9806

          k = 0.3333 0.3333 0.4005 ( 14669 PWs)   bands (ev):

   -17.8427 -17.7911 -15.2967 -15.2946 -11.6955 -11.6239  -8.5389  -8.3549
    -6.9627  -6.9474  -6.0912  -5.8896  -5.6363  -5.3590  -3.6920  -3.6623
    -1.4586  -1.3144  -0.2589   0.0110   0.9977   1.0982

     highest occupied level (ev):     1.1141

!    total energy              =    -133.98262567 Ry
     estimated scf accuracy    <          5.2E-11 Ry

     The total energy is the sum of the following terms:
     one-electron contribution =     -90.27339681 Ry
     hartree contribution      =      59.67197707 Ry
     xc contribution           =     -39.52442859 Ry
     ewald contribution        =     -63.79240119 Ry
     Dispersion Correction     =      -0.06437615 Ry

     convergence has been achieved in  12 iterations

     Forces acting on atoms (cartesian axes, Ry/au):

     atom    1 type  1   force =     0.00000000    0.00000000   -0.00583257
     atom    2 type  1   force =     0.00000000    0.00000000    0.00583257
     atom    3 type  2   force =     0.00000000    0.00000000    0.00470391
     atom    4 type  2   force =     0.00000000    0.00000000   -0.00470391
     atom    5 type  3   force =     0.00020273    0.00020273   -0.00015316
     atom    6 type  3   force =    -0.00020273   -0.00020273   -0.00015316
     atom    7 type  3   force =     0.00020273   -0.00020273    0.00015316
     atom    8 type  3   force =    -0.00020273    0.00020273    0.00015316
     atom    9 type  4   force =     0.00316822    0.00316822    0.00058528
     atom   10 type  4   force =    -0.00316822   -0.00316822    0.00058528
     atom   11 type  4   force =     0.00316822   -0.00316822   -0.00058528
     atom   12 type  4   force =    -0.00316822    0.00316822   -0.00058528
     atom   13 type  4   force =     0.00456903    0.00456903   -0.00271807
     atom   14 type  4   force =    -0.00456903   -0.00456903   -0.00271807
     atom   15 type  4   force =     0.00456903   -0.00456903    0.00271807
     atom   16 type  4   force =    -0.00456903    0.00456903    0.00271807

     Total force =     0.019772     Total SCF correction =     0.000009
     Energy error            =      5.9E-04 Ry
     Gradient error          =      5.8E-03 Ry/Bohr

     number of scf cycles    =  19
     number of bfgs steps    =  18

     energy             old  =    -133.9820373767 Ry
     energy             new  =    -133.9826256674 Ry

     CASE: energy            _new < energy            _old

     new trust radius        =       0.0503109997 bohr
     new conv_thr            =       0.0000000006 Ry


ATOMIC_POSITIONS (crystal)
C                0.0000000000        0.5000000000        0.2892288313
C                0.5000000000        0.0000000000        0.7107711437
O                0.0000000000        0.5000000000        0.5842344490
O                0.5000000000        0.0000000000        0.4157655510
N                0.1455098126        0.6455097606        0.1377208755
N                0.8544901554        0.3544902394        0.1377208755
N                0.6455097606        0.8544901554        0.8622791375
N                0.3544902394        0.1455098126        0.8622791375
H                0.2592481375        0.7592481165        0.2405682658
H                0.7407518415        0.2407518625        0.2405682658
H                0.7592481165        0.7407518415        0.7594317092
H                0.2407518625        0.2592481375        0.7594317092
H                0.1325771257        0.6325771367        0.9166338992
H                0.8674228633        0.3674228633        0.9166338992
H                0.6325771367        0.8674228633        0.0833661038
H                0.3674228633        0.1325771257        0.0833661038



     Writing config-only to output data dir /tmp/ceresoli/urea.save/ :
     XML data file
     NEW-OLD atomic charge density approx. for the potential

     total cpu time spent up to now is       92.6 secs

     Self-consistent Calculation

     iteration #  1     ecut=    90.00 Ry     beta= 0.20
     Davidson diagonalization with overlap
     ethr =  1.00E-06,  avg # of iterations =  7.5

     total cpu time spent up to now is       93.3 secs

     total energy              =    -133.98341222 Ry
     estimated scf accuracy    <       0.00301109 Ry

     iteration #  2     ecut=    90.00 Ry     beta= 0.20
     Davidson diagonalization with overlap
     ethr =  6.84E-06,  avg # of iterations =  1.0

     total cpu time spent up to now is       93.5 secs

     total energy              =    -133.98311806 Ry
     estimated scf accuracy    <       0.00157659 Ry

     iteration #  3     ecut=    90.00 Ry     beta= 0.20
     Davidson diagonalization with overlap
     ethr =  3.58E-06,  avg # of iterations =  2.0

     total cpu time spent up to now is       93.8 secs

     total energy              =    -133.98324057 Ry
     estimated scf accuracy    <       0.00021907 Ry

     iteration #  4     ecut=    90.00 Ry     beta= 0.20
     Davidson diagonalization with overlap
     ethr =  4.98E-07,  avg # of iterations =  2.7

     total cpu time spent up to now is       94.1 secs

     total energy              =    -133.98328251 Ry
     estimated scf accuracy    <       0.00003378 Ry

     iteration #  5     ecut=    90.00 Ry     beta= 0.20
     Davidson diagonalization with overlap
     ethr =  7.68E-08,  avg # of iterations =  6.0

     total cpu time spent up to now is       94.5 secs

     total energy              =    -133.98329041 Ry
     estimated scf accuracy    <       0.00000839 Ry

     iteration #  6     ecut=    90.00 Ry     beta= 0.20
     Davidson diagonalization with overlap
     ethr =  1.91E-08,  avg # of iterations =  2.5

     total cpu time spent up to now is       94.7 secs

     total energy              =    -133.98329152 Ry
     estimated scf accuracy    <       0.00000415 Ry

     iteration #  7     ecut=    90.00 Ry     beta= 0.20
     Davidson diagonalization with overlap
     ethr =  9.44E-09,  avg # of iterations =  2.0

     total cpu time spent up to now is       95.0 secs

     total energy              =    -133.98329158 Ry
     estimated scf accuracy    <       0.00000069 Ry

     iteration #  8     ecut=    90.00 Ry     beta= 0.20
     Davidson diagonalization with overlap
     ethr =  1.57E-09,  avg # of iterations =  3.8

     total cpu time spent up to now is       95.3 secs

     total energy              =    -133.98329177 Ry
     estimated scf accuracy    <       0.00000006 Ry

     iteration #  9     ecut=    90.00 Ry     beta= 0.20
     Davidson diagonalization with overlap
     ethr =  1.41E-10,  avg # of iterations =  4.7

     total cpu time spent up to now is       95.6 secs

     total energy              =    -133.98329176 Ry
     estimated scf accuracy    <       0.00000005 Ry

     iteration # 10     ecut=    90.00 Ry     beta= 0.20
     Davidson diagonalization with overlap
     ethr =  1.15E-10,  avg # of iterations =  5.7

     total cpu time spent up to now is       96.0 secs

     total energy              =    -133.98329177 Ry
     estimated scf accuracy    <       0.00000005 Ry

     iteration # 11     ecut=    90.00 Ry     beta= 0.20
     Davidson diagonalization with overlap
     ethr =  1.05E-10,  avg # of iterations =  4.3

     total cpu time spent up to now is       96.3 secs

     total energy              =    -133.98329178 Ry
     estimated scf accuracy    <          8.3E-10 Ry

     iteration # 12     ecut=    90.00 Ry     beta= 0.20
     Davidson diagonalization with overlap
     ethr =  1.88E-12,  avg # of iterations =  8.5

     total cpu time spent up to now is       96.8 secs

     total energy              =    -133.98329178 Ry
     estimated scf accuracy    <          7.5E-09 Ry

     iteration # 13     ecut=    90.00 Ry     beta= 0.20
     Davidson diagonalization with overlap
     ethr =  1.88E-12,  avg # of iterations =  5.8

     total cpu time spent up to now is       97.2 secs

     End of self-consistent calculation

          k = 0.0000 0.0000 0.0000 ( 14623 PWs)   bands (ev):

   -18.0271 -17.7212 -15.3378 -15.3378 -11.2065 -11.2004  -8.6299  -8.3994
    -7.2758  -6.7299  -6.7299  -6.4758  -5.7018  -5.7018  -3.6068  -3.6068
    -0.9387  -0.9145  -0.1350   0.2911   0.8974   0.8974

          k = 0.0000 0.0000 0.4005 ( 14687 PWs)   bands (ev):

   -17.9348 -17.7212 -15.3144 -15.3144 -11.7857 -11.5265  -8.7908  -8.0878
    -6.9722  -6.9722  -6.0827  -5.6973  -5.6400  -5.6400  -3.6164  -3.6164
    -1.6905  -1.1444  -0.8312   0.2113   1.1241   1.1241

          k = 0.0000 0.3333 0.0000 ( 14674 PWs)   bands (ev):

   -17.9523 -17.7994 -15.3391 -15.3387 -11.1988 -11.1949  -8.5340  -8.3828
    -7.3754  -7.0009  -6.7193  -6.7098  -5.4109  -5.3512  -3.7193  -3.7182
    -0.7236  -0.5783  -0.3354   0.0267   0.9956   1.0013

          k = 0.0000 0.3333 0.4005 ( 14700 PWs)   bands (ev):

   -17.8797 -17.7726 -15.3222 -15.3214 -11.7111 -11.5799  -8.6549  -8.3038
    -6.9693  -6.9680  -6.1577  -6.0366  -5.4199  -5.3358  -3.6870  -3.6688
    -1.4815  -1.2086  -0.5098   0.0164   1.0591   1.0700

          k = 0.3333 0.3333 0.0000 ( 14745 PWs)   bands (ev):

   -17.9106 -17.8337 -15.3501 -15.3451 -11.1946 -11.1916  -8.5686  -8.4647
    -7.1821  -6.8175  -6.7493  -6.7143  -5.7007  -5.3772  -3.7598  -3.6996
    -0.6230  -0.4228  -0.3207  -0.0028   0.9906   0.9980

          k = 0.3333 0.3333 0.4005 ( 14669 PWs)   bands (ev):

   -17.8494 -17.7957 -15.3276 -15.3262 -11.6957 -11.6269  -8.5344  -8.3517
    -6.9990  -6.9826  -6.0897  -5.8888  -5.6484  -5.3753  -3.6976  -3.6699
    -1.4460  -1.3034  -0.2794  -0.0005   1.0134   1.1077

     highest occupied level (ev):     1.1241

!    total energy              =    -133.98329178 Ry
     estimated scf accuracy    <          1.4E-10 Ry

     The total energy is the sum of the following terms:
     one-electron contribution =     -90.40634878 Ry
     hartree contribution      =      59.72935151 Ry
     xc contribution           =     -39.52981268 Ry
     ewald contribution        =     -63.71179496 Ry
     Dispersion Correction     =      -0.06468687 Ry

     convergence has been achieved in  13 iterations

     Forces acting on atoms (cartesian axes, Ry/au):

     atom    1 type  1   force =     0.00000000    0.00000000   -0.00773655
     atom    2 type  1   force =     0.00000000    0.00000000    0.00773655
     atom    3 type  2   force =     0.00000000    0.00000000    0.01089069
     atom    4 type  2   force =     0.00000000    0.00000000   -0.01089069
     atom    5 type  3   force =    -0.00054770   -0.00054770    0.00106765
     atom    6 type  3   force =     0.00054770    0.00054770    0.00106765
     atom    7 type  3   force =    -0.00054770    0.00054770   -0.00106765
     atom    8 type  3   force =     0.00054770   -0.00054770   -0.00106765
     atom    9 type  4   force =     0.00336023    0.00336023   -0.00017943
     atom   10 type  4   force =    -0.00336023   -0.00336023   -0.00017943
     atom   11 type  4   force =     0.00336023   -0.00336023    0.00017943
     atom   12 type  4   force =    -0.00336023    0.00336023    0.00017943
     atom   13 type  4   force =     0.00414768    0.00414768   -0.00480701
     atom   14 type  4   force =    -0.00414768   -0.00414768   -0.00480701
     atom   15 type  4   force =     0.00414768   -0.00414768    0.00480701
     atom   16 type  4   force =    -0.00414768    0.00414768    0.00480701

     Total force =     0.026161     Total SCF correction =     0.000016
     Energy error            =      6.7E-04 Ry
     Gradient error          =      1.1E-02 Ry/Bohr

     number of scf cycles    =  20
     number of bfgs steps    =  19

     energy             old  =    -133.9826256674 Ry
     energy             new  =    -133.9832917809 Ry

     CASE: energy            _new < energy            _old

     new trust radius        =       0.0553420997 bohr
     new conv_thr            =       0.0000000007 Ry


ATOMIC_POSITIONS (crystal)
C                0.0000000000        0.5000000000        0.2830136831
C                0.5000000000        0.0000000000        0.7169862919
O                0.0000000000        0.5000000000        0.5780341482
O                0.5000000000        0.0000000000        0.4219658518
N                0.1461079164        0.6461078644        0.1329468705
N                0.8538920516        0.3538921356        0.1329468705
N                0.6461078644        0.8538920516        0.8670531425
N                0.3538921356        0.1461079164        0.8670531425
H                0.2592199931        0.7592199721        0.2380178106
H                0.7407799859        0.2407800069        0.2380178106
H                0.7592199721        0.7407799859        0.7619821644
H                0.2407800069        0.2592199931        0.7619821644
H                0.1347051439        0.6347051549        0.9119197493
H                0.8652948451        0.3652948451        0.9119197493
H                0.6347051549        0.8652948451        0.0880802537
H                0.3652948451        0.1347051439        0.0880802537



     Writing config-only to output data dir /tmp/ceresoli/urea.save/ :
     XML data file
     NEW-OLD atomic charge density approx. for the potential

     total cpu time spent up to now is       97.4 secs

     Self-consistent Calculation

     iteration #  1     ecut=    90.00 Ry     beta= 0.20
     Davidson diagonalization with overlap
     ethr =  1.00E-06,  avg # of iterations =  8.0

     total cpu time spent up to now is       98.1 secs

     total energy              =    -133.98438790 Ry
     estimated scf accuracy    <       0.00583485 Ry

     iteration #  2     ecut=    90.00 Ry     beta= 0.20
     Davidson diagonalization with overlap
     ethr =  1.33E-05,  avg # of iterations =  1.0

     total cpu time spent up to now is       98.3 secs

     total energy              =    -133.98371631 Ry
     estimated scf accuracy    <       0.00291569 Ry

     iteration #  3     ecut=    90.00 Ry     beta= 0.20
     Davidson diagonalization with overlap
     ethr =  6.63E-06,  avg # of iterations =  2.0

     total cpu time spent up to now is       98.6 secs

     total energy              =    -133.98396462 Ry
     estimated scf accuracy    <       0.00043564 Ry

     iteration #  4     ecut=    90.00 Ry     beta= 0.20
     Davidson diagonalization with overlap
     ethr =  9.90E-07,  avg # of iterations =  2.3

     total cpu time spent up to now is       98.9 secs

     total energy              =    -133.98404892 Ry
     estimated scf accuracy    <       0.00008858 Ry

     iteration #  5     ecut=    90.00 Ry     beta= 0.20
     Davidson diagonalization with overlap
     ethr =  2.01E-07,  avg # of iterations =  4.0

     total cpu time spent up to now is       99.2 secs

     total energy              =    -133.98404984 Ry
     estimated scf accuracy    <       0.00002476 Ry

     iteration #  6     ecut=    90.00 Ry     beta= 0.20
     Davidson diagonalization with overlap
     ethr =  5.63E-08,  avg # of iterations =  7.0

     total cpu time spent up to now is       99.6 secs

     total energy              =    -133.98405664 Ry
     estimated scf accuracy    <       0.00001017 Ry

     iteration #  7     ecut=    90.00 Ry     beta= 0.20
     Davidson diagonalization with overlap
     ethr =  2.31E-08,  avg # of iterations =  4.8

     total cpu time spent up to now is       99.9 secs

     total energy              =    -133.98405955 Ry
     estimated scf accuracy    <       0.00000878 Ry

     iteration #  8     ecut=    90.00 Ry     beta= 0.20
     Davidson diagonalization with overlap
     ethr =  2.00E-08,  avg # of iterations =  1.8

     total cpu time spent up to now is      100.2 secs

     total energy              =    -133.98405894 Ry
     estimated scf accuracy    <       0.00000222 Ry

     iteration #  9     ecut=    90.00 Ry     beta= 0.20
     Davidson diagonalization with overlap
     ethr =  5.06E-09,  avg # of iterations =  4.8

     total cpu time spent up to now is      100.5 secs

     total energy              =    -133.98405983 Ry
     estimated scf accuracy    <       0.00000022 Ry

     iteration # 10     ecut=    90.00 Ry     beta= 0.20
     Davidson diagonalization with overlap
     ethr =  5.08E-10,  avg # of iterations =  4.7

     total cpu time spent up to now is      100.8 secs

     total energy              =    -133.98405974 Ry
     estimated scf accuracy    <       0.00000020 Ry

     iteration # 11     ecut=    90.00 Ry     beta= 0.20
     Davidson diagonalization with overlap
     ethr =  4.55E-10,  avg # of iterations =  5.8

     total cpu time spent up to now is      101.2 secs

     total energy              =    -133.98405982 Ry
     estimated scf accuracy    <       0.00000011 Ry

     iteration # 12     ecut=    90.00 Ry     beta= 0.20
     Davidson diagonalization with overlap
     ethr =  2.40E-10,  avg # of iterations =  2.3

     total cpu time spent up to now is      101.4 secs

     total energy              =    -133.98405981 Ry
     estimated scf accuracy    <       0.00000003 Ry

     iteration # 13     ecut=    90.00 Ry     beta= 0.20
     Davidson diagonalization with overlap
     ethr =  7.31E-11,  avg # of iterations =  5.3

     total cpu time spent up to now is      101.8 secs

     End of self-consistent calculation

          k = 0.0000 0.0000 0.0000 ( 14623 PWs)   bands (ev):

   -18.0196 -17.7050 -15.3628 -15.3628 -11.2074 -11.1858  -8.5933  -8.4018
    -7.2460  -6.7654  -6.7654  -6.4374  -5.7109  -5.7109  -3.6024  -3.6024
    -0.9726  -0.9299  -0.1396   0.2946   0.9126   0.9126

          k = 0.0000 0.0000 0.4005 ( 14687 PWs)   bands (ev):

   -17.9301 -17.7037 -15.3396 -15.3396 -11.7633 -11.5120  -8.7858  -8.0753
    -7.0033  -7.0033  -6.0681  -5.6772  -5.6503  -5.6503  -3.6132  -3.6131
    -1.6750  -1.1293  -0.8698   0.2203   1.1394   1.1394

          k = 0.0000 0.3333 0.0000 ( 14674 PWs)   bands (ev):

   -17.9429 -17.7856 -15.3635 -15.3632 -11.1971 -11.1856  -8.5084  -8.3793
    -7.3372  -6.9637  -6.7550  -6.7444  -5.4236  -5.3635  -3.7133  -3.7131
    -0.7369  -0.6030  -0.3442   0.0214   1.0128   1.0180

          k = 0.0000 0.3333 0.4005 ( 14700 PWs)   bands (ev):

   -17.8721 -17.7586 -15.3466 -15.3459 -11.6924 -11.5653  -8.6460  -8.2912
    -6.9991  -6.9978  -6.1459  -6.0232  -5.4298  -5.3451  -3.6821  -3.6643
    -1.4680  -1.1956  -0.5379   0.0117   1.0813   1.0924

          k = 0.3333 0.3333 0.0000 ( 14745 PWs)   bands (ev):

   -17.9000 -17.8210 -15.3752 -15.3696 -11.1906 -11.1841  -8.5457  -8.4510
    -7.1456  -6.8011  -6.7854  -6.7351  -5.7096  -5.3895  -3.7531  -3.6940
    -0.6343  -0.4316  -0.3418  -0.0145   0.9976   1.0159

          k = 0.3333 0.3333 0.4005 ( 14669 PWs)   bands (ev):

   -17.8401 -17.7832 -15.3522 -15.3515 -11.6772 -11.6108  -8.5247  -8.3406
    -7.0305  -7.0126  -6.0767  -5.8731  -5.6580  -5.3840  -3.6925  -3.6667
    -1.4303  -1.2888  -0.3024  -0.0115   1.0340   1.1219

     highest occupied level (ev):     1.1394

!    total energy              =    -133.98405982 Ry
     estimated scf accuracy    <          6.6E-10 Ry

     The total energy is the sum of the following terms:
     one-electron contribution =     -90.33747464 Ry
     hartree contribution      =      59.68813704 Ry
     xc contribution           =     -39.51897726 Ry
     ewald contribution        =     -63.75059797 Ry
     Dispersion Correction     =      -0.06514700 Ry

     convergence has been achieved in  13 iterations

     Forces acting on atoms (cartesian axes, Ry/au):

     atom    1 type  1   force =     0.00000000    0.00000000   -0.00674047
     atom    2 type  1   force =     0.00000000    0.00000000    0.00674047
     atom    3 type  2   force =     0.00000000    0.00000000    0.01307459
     atom    4 type  2   force =     0.00000000    0.00000000   -0.01307459
     atom    5 type  3   force =    -0.00150828   -0.00150828    0.00113121
     atom    6 type  3   force =     0.00150828    0.00150828    0.00113121
     atom    7 type  3   force =    -0.00150828    0.00150828   -0.00113121
     atom    8 type  3   force =     0.00150828   -0.00150828   -0.00113121
     atom    9 type  4   force =     0.00249359    0.00249359   -0.00072154
     atom   10 type  4   force =    -0.00249359   -0.00249359   -0.00072154
     atom   11 type  4   force =     0.00249359   -0.00249359    0.00072154
     atom   12 type  4   force =    -0.00249359    0.00249359    0.00072154
     atom   13 type  4   force =     0.00321046    0.00321046   -0.00503008
     atom   14 type  4   force =    -0.00321046   -0.00321046   -0.00503008
     atom   15 type  4   force =     0.00321046   -0.00321046    0.00503008
     atom   16 type  4   force =    -0.00321046    0.00321046    0.00503008

     Total force =     0.026298     Total SCF correction =     0.000029
     Energy error            =      7.7E-04 Ry
     Gradient error          =      1.3E-02 Ry/Bohr

     number of scf cycles    =  21
     number of bfgs steps    =  20

     energy             old  =    -133.9832917809 Ry
     energy             new  =    -133.9840598226 Ry

     CASE: energy            _new < energy            _old

     new trust radius        =       0.0634668359 bohr
     new conv_thr            =       0.0000000008 Ry


ATOMIC_POSITIONS (crystal)
C                0.0000000000        0.5000000000        0.2764649949
C                0.5000000000        0.0000000000        0.7235349801
O                0.0000000000        0.5000000000        0.5723855130
O                0.5000000000        0.0000000000        0.4276144870
N                0.1467333865        0.6467333345        0.1277273725
N                0.8532665815        0.3532666655        0.1277273725
N                0.6467333345        0.8532665815        0.8722726405
N                0.3532666655        0.1467333865        0.8722726405
H                0.2595446185        0.7595445975        0.2345749783
H                0.7404553605        0.2404553815        0.2345749783
H                0.7595445975        0.7404553605        0.7654249967
H                0.2404553815        0.2595446185        0.7654249967
H                0.1373143668        0.6373143778        0.9063385690
H                0.8626856222        0.3626856222        0.9063385690
H                0.6373143778        0.8626856222        0.0936614340
H                0.3626856222        0.1373143668        0.0936614340



     Writing config-only to output data dir /tmp/ceresoli/urea.save/ :
     XML data file
     NEW-OLD atomic charge density approx. for the potential

     total cpu time spent up to now is      101.9 secs

     Self-consistent Calculation

     iteration #  1     ecut=    90.00 Ry     beta= 0.20
     Davidson diagonalization with overlap
     ethr =  1.00E-06,  avg # of iterations =  8.3

     total cpu time spent up to now is      102.6 secs

     total energy              =    -133.98529178 Ry
     estimated scf accuracy    <       0.00840802 Ry

     iteration #  2     ecut=    90.00 Ry     beta= 0.20
     Davidson diagonalization with overlap
     ethr =  1.91E-05,  avg # of iterations =  1.0

     total cpu time spent up to now is      102.8 secs

     total energy              =    -133.98424242 Ry
     estimated scf accuracy    <       0.00405552 Ry

     iteration #  3     ecut=    90.00 Ry     beta= 0.20
     Davidson diagonalization with overlap
     ethr =  9.22E-06,  avg # of iterations =  2.0

     total cpu time spent up to now is      103.1 secs

     total energy              =    -133.98461825 Ry
     estimated scf accuracy    <       0.00060992 Ry

     iteration #  4     ecut=    90.00 Ry     beta= 0.20
     Davidson diagonalization with overlap
     ethr =  1.39E-06,  avg # of iterations =  2.2

     total cpu time spent up to now is      103.4 secs

     total energy              =    -133.98473048 Ry
     estimated scf accuracy    <       0.00012282 Ry

     iteration #  5     ecut=    90.00 Ry     beta= 0.20
     Davidson diagonalization with overlap
     ethr =  2.79E-07,  avg # of iterations =  2.8

     total cpu time spent up to now is      103.7 secs

     total energy              =    -133.98471707 Ry
     estimated scf accuracy    <       0.00003809 Ry

     iteration #  6     ecut=    90.00 Ry     beta= 0.20
     Davidson diagonalization with overlap
     ethr =  8.66E-08,  avg # of iterations =  7.2

     total cpu time spent up to now is      104.1 secs

     total energy              =    -133.98473330 Ry
     estimated scf accuracy    <       0.00012026 Ry

     iteration #  7     ecut=    90.00 Ry     beta= 0.20
     Davidson diagonalization with overlap
     ethr =  8.66E-08,  avg # of iterations =  4.7

     total cpu time spent up to now is      104.4 secs

     total energy              =    -133.98473238 Ry
     estimated scf accuracy    <       0.00001767 Ry

     iteration #  8     ecut=    90.00 Ry     beta= 0.20
     Davidson diagonalization with overlap
     ethr =  4.02E-08,  avg # of iterations =  6.5

     total cpu time spent up to now is      104.8 secs

     total energy              =    -133.98473700 Ry
     estimated scf accuracy    <       0.00001818 Ry

     iteration #  9     ecut=    90.00 Ry     beta= 0.20
     Davidson diagonalization with overlap
     ethr =  4.02E-08,  avg # of iterations =  4.2

     total cpu time spent up to now is      105.1 secs

     total energy              =    -133.98474084 Ry
     estimated scf accuracy    <       0.00000017 Ry

     iteration # 10     ecut=    90.00 Ry     beta= 0.20
     Davidson diagonalization with overlap
     ethr =  3.95E-10,  avg # of iterations =  7.8

     total cpu time spent up to now is      105.5 secs

     total energy              =    -133.98474103 Ry
     estimated scf accuracy    <       0.00000007 Ry

     iteration # 11     ecut=    90.00 Ry     beta= 0.20
     Davidson diagonalization with overlap
     ethr =  1.63E-10,  avg # of iterations =  5.5

     total cpu time spent up to now is      105.9 secs

     total energy              =    -133.98474104 Ry
     estimated scf accuracy    <       0.00000007 Ry

     iteration # 12     ecut=    90.00 Ry     beta= 0.20
     Davidson diagonalization with overlap
     ethr =  1.63E-10,  avg # of iterations =  3.7

     total cpu time spent up to now is      106.2 secs

     total energy              =    -133.98474106 Ry
     estimated scf accuracy    <          2.1E-09 Ry

     iteration # 13     ecut=    90.00 Ry     beta= 0.20
     Davidson diagonalization with overlap
     ethr =  4.83E-12,  avg # of iterations =  5.7

     total cpu time spent up to now is      106.6 secs

     total energy              =    -133.98474106 Ry
     estimated scf accuracy    <          3.1E-09 Ry

     iteration # 14     ecut=    90.00 Ry     beta= 0.20
     Davidson diagonalization with overlap
     ethr =  4.83E-12,  avg # of iterations =  2.0

     total cpu time spent up to now is      106.8 secs

     total energy              =    -133.98474106 Ry
     estimated scf accuracy    <          9.8E-10 Ry

     iteration # 15     ecut=    90.00 Ry     beta= 0.20
     Davidson diagonalization with overlap
     ethr =  2.22E-12,  avg # of iterations =  6.8

     total cpu time spent up to now is      107.2 secs

     End of self-consistent calculation

          k = 0.0000 0.0000 0.0000 ( 14623 PWs)   bands (ev):

   -17.9964 -17.6701 -15.3724 -15.3724 -11.1788 -11.1452  -8.5549  -8.3882
    -7.2252  -6.7920  -6.7920  -6.3857  -5.7035  -5.7035  -3.5855  -3.5855
    -1.0060  -0.9377  -0.1328   0.3050   0.9222   0.9222

          k = 0.0000 0.0000 0.4005 ( 14687 PWs)   bands (ev):

   -17.9096 -17.6671 -15.3494 -15.3494 -11.7192 -11.4738  -8.7762  -8.0489
    -7.0250  -7.0250  -6.0463  -5.6463  -5.6463  -5.6408  -3.5971  -3.5971
    -1.6606  -1.1107  -0.9081   0.2366   1.1582   1.1582

          k = 0.0000 0.3333 0.0000 ( 14674 PWs)   bands (ev):

   -17.9172 -17.7541 -15.3726 -15.3723 -11.1667 -11.1493  -8.4792  -8.3639
    -7.3029  -6.9228  -6.7801  -6.7648  -5.4193  -5.3574  -3.6969  -3.6954
    -0.7422  -0.6258  -0.3432   0.0207   1.0241   1.0288

          k = 0.0000 0.3333 0.4005 ( 14700 PWs)   bands (ev):

   -17.8480 -17.7264 -15.3556 -15.3549 -11.6516 -11.5275  -8.6312  -8.2684
    -7.0193  -7.0179  -6.1241  -5.9971  -5.4235  -5.3367  -3.6657  -3.6478
    -1.4546  -1.1802  -0.5641   0.0123   1.1059   1.1172

          k = 0.3333 0.3333 0.0000 ( 14745 PWs)   bands (ev):

   -17.8726 -17.7907 -15.3850 -15.3787 -11.1585 -11.1491  -8.5170  -8.4291
    -7.1082  -6.8127  -6.8041  -6.7202  -5.7016  -5.3840  -3.7350  -3.6763
    -0.6368  -0.4305  -0.3602  -0.0220   0.9977   1.0261

          k = 0.3333 0.3333 0.4005 ( 14669 PWs)   bands (ev):

   -17.8138 -17.7528 -15.3614 -15.3612 -11.6366 -11.5719  -8.5074  -8.3192
    -7.0527  -7.0330  -6.0526  -5.8455  -5.6532  -5.3757  -3.6755  -3.6508
    -1.4137  -1.2724  -0.3228  -0.0181   1.0565   1.1389

     highest occupied level (ev):     1.1582

!    total energy              =    -133.98474106 Ry
     estimated scf accuracy    <          2.0E-10 Ry

     The total energy is the sum of the following terms:
     one-electron contribution =     -90.04856457 Ry
     hartree contribution      =      59.54202596 Ry
     xc contribution           =     -39.48914529 Ry
     ewald contribution        =     -63.92335752 Ry
     Dispersion Correction     =      -0.06569963 Ry

     convergence has been achieved in  15 iterations

     Forces acting on atoms (cartesian axes, Ry/au):

     atom    1 type  1   force =     0.00000000    0.00000000   -0.00261463
     atom    2 type  1   force =     0.00000000    0.00000000    0.00261463
     atom    3 type  2   force =     0.00000000    0.00000000    0.00856785
     atom    4 type  2   force =     0.00000000    0.00000000   -0.00856785
     atom    5 type  3   force =    -0.00139238   -0.00139238    0.00054090
     atom    6 type  3   force =     0.00139238    0.00139238    0.00054090
     atom    7 type  3   force =    -0.00139238    0.00139238   -0.00054090
     atom    8 type  3   force =     0.00139238   -0.00139238   -0.00054090
     atom    9 type  4   force =     0.00018286    0.00018286   -0.00123999
     atom   10 type  4   force =    -0.00018286   -0.00018286   -0.00123999
     atom   11 type  4   force =     0.00018286   -0.00018286    0.00123999
     atom   12 type  4   force =    -0.00018286    0.00018286    0.00123999
     atom   13 type  4   force =     0.00152517    0.00152517   -0.00280090
     atom   14 type  4   force =    -0.00152517   -0.00152517   -0.00280090
     atom   15 type  4   force =     0.00152517   -0.00152517    0.00280090
     atom   16 type  4   force =    -0.00152517    0.00152517    0.00280090

     Total force =     0.015283     Total SCF correction =     0.000018
     Energy error            =      6.8E-04 Ry
     Gradient error          =      8.6E-03 Ry/Bohr

     number of scf cycles    =  22
     number of bfgs steps    =  21

     energy             old  =    -133.9840598226 Ry
     energy             new  =    -133.9847410566 Ry

     CASE: energy            _new < energy            _old

     new trust radius        =       0.0284579014 bohr
     new conv_thr            =       0.0000000007 Ry


ATOMIC_POSITIONS (crystal)
C                0.0000000000        0.5000000000        0.2738773864
C                0.5000000000        0.0000000000        0.7261225886
O                0.0000000000        0.5000000000        0.5706354573
O                0.5000000000        0.0000000000        0.4293645427
N                0.1468273120        0.6468272600        0.1252145907
N                0.8531726560        0.3531727400        0.1252145907
N                0.6468272600        0.8531726560        0.8747854223
N                0.3531727400        0.1468273120        0.8747854223
H                0.2596629635        0.7596629425        0.2322030963
H                0.7403370155        0.2403370365        0.2322030963
H                0.7596629425        0.7403370155        0.7677968787
H                0.2403370365        0.2596629635        0.7677968787
H                0.1381381662        0.6381381772        0.9034654220
H                0.8618618228        0.3618618228        0.9034654220
H                0.6381381772        0.8618618228        0.0965345810
H                0.3618618228        0.1381381662        0.0965345810



     Writing config-only to output data dir /tmp/ceresoli/urea.save/ :
     XML data file
     NEW-OLD atomic charge density approx. for the potential

     total cpu time spent up to now is      107.3 secs

     Self-consistent Calculation

     iteration #  1     ecut=    90.00 Ry     beta= 0.20
     Davidson diagonalization with overlap
     ethr =  1.00E-06,  avg # of iterations =  6.5

     total cpu time spent up to now is      107.9 secs

     total energy              =    -133.98505538 Ry
     estimated scf accuracy    <       0.00175314 Ry

     iteration #  2     ecut=    90.00 Ry     beta= 0.20
     Davidson diagonalization with overlap
     ethr =  3.98E-06,  avg # of iterations =  1.0

     total cpu time spent up to now is      108.2 secs

     total energy              =    -133.98481909 Ry
     estimated scf accuracy    <       0.00086140 Ry

     iteration #  3     ecut=    90.00 Ry     beta= 0.20
     Davidson diagonalization with overlap
     ethr =  1.96E-06,  avg # of iterations =  2.0

     total cpu time spent up to now is      108.4 secs

     total energy              =    -133.98490572 Ry
     estimated scf accuracy    <       0.00011409 Ry

     iteration #  4     ecut=    90.00 Ry     beta= 0.20
     Davidson diagonalization with overlap
     ethr =  2.59E-07,  avg # of iterations =  2.0

     total cpu time spent up to now is      108.8 secs

     total energy              =    -133.98492532 Ry
     estimated scf accuracy    <       0.00001982 Ry

     iteration #  5     ecut=    90.00 Ry     beta= 0.20
     Davidson diagonalization with overlap
     ethr =  4.50E-08,  avg # of iterations =  3.5

     total cpu time spent up to now is      109.0 secs

     total energy              =    -133.98492587 Ry
     estimated scf accuracy    <       0.00000548 Ry

     iteration #  6     ecut=    90.00 Ry     beta= 0.20
     Davidson diagonalization with overlap
     ethr =  1.25E-08,  avg # of iterations =  6.2

     total cpu time spent up to now is      109.4 secs

     total energy              =    -133.98492633 Ry
     estimated scf accuracy    <       0.00001037 Ry

     iteration #  7     ecut=    90.00 Ry     beta= 0.20
     Davidson diagonalization with overlap
     ethr =  1.25E-08,  avg # of iterations =  4.8

     total cpu time spent up to now is      109.8 secs

     total energy              =    -133.98492843 Ry
     estimated scf accuracy    <       0.00000037 Ry

     iteration #  8     ecut=    90.00 Ry     beta= 0.20
     Davidson diagonalization with overlap
     ethr =  8.30E-10,  avg # of iterations =  6.3

     total cpu time spent up to now is      110.2 secs

     total energy              =    -133.98492855 Ry
     estimated scf accuracy    <       0.00000166 Ry

     iteration #  9     ecut=    90.00 Ry     beta= 0.20
     Davidson diagonalization with overlap
     ethr =  8.30E-10,  avg # of iterations =  3.0

     total cpu time spent up to now is      110.4 secs

     total energy              =    -133.98492833 Ry
     estimated scf accuracy    <       0.00000068 Ry

     iteration # 10     ecut=    90.00 Ry     beta= 0.20
     Davidson diagonalization with overlap
     ethr =  8.30E-10,  avg # of iterations =  6.5

     total cpu time spent up to now is      110.8 secs

     total energy              =    -133.98492849 Ry
     estimated scf accuracy    <       0.00000001 Ry

     iteration # 11     ecut=    90.00 Ry     beta= 0.20
     Davidson diagonalization with overlap
     ethr =  2.90E-11,  avg # of iterations =  6.5

     total cpu time spent up to now is      111.2 secs

     total energy              =    -133.98492849 Ry
     estimated scf accuracy    <       0.00000003 Ry

     iteration # 12     ecut=    90.00 Ry     beta= 0.20
     Davidson diagonalization with overlap
     ethr =  2.90E-11,  avg # of iterations =  1.8

     total cpu time spent up to now is      111.4 secs

     total energy              =    -133.98492848 Ry
     estimated scf accuracy    <       0.00000002 Ry

     iteration # 13     ecut=    90.00 Ry     beta= 0.20
     Davidson diagonalization with overlap
     ethr =  2.90E-11,  avg # of iterations =  6.8

     total cpu time spent up to now is      111.8 secs

     total energy              =    -133.98492849 Ry
     estimated scf accuracy    <          7.4E-09 Ry

     iteration # 14     ecut=    90.00 Ry     beta= 0.20
     Davidson diagonalization with overlap
     ethr =  1.69E-11,  avg # of iterations =  1.0

     total cpu time spent up to now is      112.0 secs

     total energy              =    -133.98492849 Ry
     estimated scf accuracy    <          4.8E-09 Ry

     iteration # 15     ecut=    90.00 Ry     beta= 0.20
     Davidson diagonalization with overlap
     ethr =  1.09E-11,  avg # of iterations =  6.2

     total cpu time spent up to now is      112.4 secs

     total energy              =    -133.98492849 Ry
     estimated scf accuracy    <          1.2E-09 Ry

     iteration # 16     ecut=    90.00 Ry     beta= 0.20
     Davidson diagonalization with overlap
     ethr =  2.69E-12,  avg # of iterations =  3.7

     total cpu time spent up to now is      112.6 secs

     End of self-consistent calculation

          k = 0.0000 0.0000 0.0000 ( 14623 PWs)   bands (ev):

   -17.9848 -17.6531 -15.3676 -15.3676 -11.1533 -11.1153  -8.5450  -8.3835
    -7.2329  -6.7940  -6.7940  -6.3739  -5.6909  -5.6909  -3.5745  -3.5745
    -1.0165  -0.9339  -0.1237   0.3145   0.9196   0.9196

          k = 0.0000 0.0000 0.4005 ( 14687 PWs)   bands (ev):

   -17.8993 -17.6488 -15.3445 -15.3445 -11.6928 -11.4504  -8.7750  -8.0404
    -7.0260  -7.0260  -6.0410  -5.6352  -5.6352  -5.6275  -3.5860  -3.5860
    -1.6586  -1.1058  -0.9208   0.2490   1.1639   1.1639

          k = 0.0000 0.3333 0.0000 ( 14674 PWs)   bands (ev):

   -17.9045 -17.7386 -15.3675 -15.3672 -11.1406 -11.1210  -8.4720  -8.3593
    -7.3021  -6.9146  -6.7812  -6.7639  -5.4093  -5.3472  -3.6866  -3.6846
    -0.7383  -0.6316  -0.3371   0.0248   1.0216   1.0262

          k = 0.0000 0.3333 0.4005 ( 14700 PWs)   bands (ev):

   -17.8358 -17.7103 -15.3504 -15.3496 -11.6266 -11.5039  -8.6281  -8.2617
    -7.0198  -7.0183  -6.1162  -5.9856  -5.4124  -5.3258  -3.6550  -3.6371
    -1.4533  -1.1774  -0.5714   0.0171   1.1140   1.1253

          k = 0.3333 0.3333 0.0000 ( 14745 PWs)   bands (ev):

   -17.8591 -17.7758 -15.3803 -15.3737 -11.1318 -11.1214  -8.5095  -8.4233
    -7.1044  -6.8152  -6.8048  -6.7169  -5.6884  -5.3738  -3.7240  -3.6650
    -0.6313  -0.4237  -0.3640  -0.0210   0.9899   1.0221

          k = 0.3333 0.3333 0.4005 ( 14669 PWs)   bands (ev):

   -17.8006 -17.7376 -15.3566 -15.3560 -11.6118 -11.5480  -8.5029  -8.3129
    -7.0540  -7.0335  -6.0432  -5.8366  -5.6416  -5.3647  -3.6646  -3.6397
    -1.4106  -1.2691  -0.3276  -0.0165   1.0635   1.1436

     highest occupied level (ev):     1.1639

!    total energy              =    -133.98492849 Ry
     estimated scf accuracy    <          1.5E-10 Ry

     The total energy is the sum of the following terms:
     one-electron contribution =     -89.92027465 Ry
     hartree contribution      =      59.47918524 Ry
     xc contribution           =     -39.47200388 Ry
     ewald contribution        =     -64.00586479 Ry
     Dispersion Correction     =      -0.06597040 Ry

     convergence has been achieved in  16 iterations

     Forces acting on atoms (cartesian axes, Ry/au):

     atom    1 type  1   force =     0.00000000    0.00000000    0.00005929
     atom    2 type  1   force =     0.00000000    0.00000000   -0.00005929
     atom    3 type  2   force =     0.00000000    0.00000000    0.00279312
     atom    4 type  2   force =     0.00000000    0.00000000   -0.00279312
     atom    5 type  3   force =    -0.00088276   -0.00088276    0.00012159
     atom    6 type  3   force =     0.00088276    0.00088276    0.00012159
     atom    7 type  3   force =    -0.00088276    0.00088276   -0.00012159
     atom    8 type  3   force =     0.00088276   -0.00088276   -0.00012159
     atom    9 type  4   force =    -0.00069971   -0.00069971   -0.00095774
     atom   10 type  4   force =     0.00069971    0.00069971   -0.00095774
     atom   11 type  4   force =    -0.00069971    0.00069971    0.00095774
     atom   12 type  4   force =     0.00069971   -0.00069971    0.00095774
     atom   13 type  4   force =     0.00059579    0.00059579   -0.00069832
     atom   14 type  4   force =    -0.00059579   -0.00059579   -0.00069832
     atom   15 type  4   force =     0.00059579   -0.00059579    0.00069832
     atom   16 type  4   force =    -0.00059579    0.00059579    0.00069832

     Total force =     0.005855     Total SCF correction =     0.000015
     Energy error            =      1.9E-04 Ry
     Gradient error          =      2.8E-03 Ry/Bohr

     number of scf cycles    =  23
     number of bfgs steps    =  22

     energy             old  =    -133.9847410566 Ry
     energy             new  =    -133.9849284895 Ry

     CASE: energy            _new < energy            _old

     new trust radius        =       0.0102559287 bohr
     new conv_thr            =       0.0000000002 Ry


ATOMIC_POSITIONS (crystal)
C                0.0000000000        0.5000000000        0.2733113437
C                0.5000000000        0.0000000000        0.7266886313
O                0.0000000000        0.5000000000        0.5704211508
O                0.5000000000        0.0000000000        0.4295788492
N                0.1467079633        0.6467079113        0.1243578557
N                0.8532920047        0.3532920887        0.1243578557
N                0.6467079113        0.8532920047        0.8756421573
N                0.3532920887        0.1467079633        0.8756421573
H                0.2595909709        0.7595909499        0.2310578262
H                0.7404090081        0.2404090291        0.2310578262
H                0.7595909499        0.7404090081        0.7689421488
H                0.2404090291        0.2595909709        0.7689421488
H                0.1381430060        0.6381430170        0.9024540285
H                0.8618569830        0.3618569830        0.9024540285
H                0.6381430170        0.8618569830        0.0975459745
H                0.3618569830        0.1381430060        0.0975459745



     Writing config-only to output data dir /tmp/ceresoli/urea.save/ :
     XML data file
     NEW-OLD atomic charge density approx. for the potential

     total cpu time spent up to now is      112.8 secs

     Self-consistent Calculation

     iteration #  1     ecut=    90.00 Ry     beta= 0.20
     Davidson diagonalization with overlap
     ethr =  1.00E-06,  avg # of iterations =  4.0

     total cpu time spent up to now is      113.3 secs

     total energy              =    -133.98498316 Ry
     estimated scf accuracy    <       0.00017432 Ry

     iteration #  2     ecut=    90.00 Ry     beta= 0.20
     Davidson diagonalization with overlap
     ethr =  3.96E-07,  avg # of iterations =  1.0

     total cpu time spent up to now is      113.5 secs

     total energy              =    -133.98495337 Ry
     estimated scf accuracy    <       0.00009919 Ry

     iteration #  3     ecut=    90.00 Ry     beta= 0.20
     Davidson diagonalization with overlap
     ethr =  2.25E-07,  avg # of iterations =  2.0

     total cpu time spent up to now is      113.8 secs

     total energy              =    -133.98496592 Ry
     estimated scf accuracy    <       0.00000897 Ry

     iteration #  4     ecut=    90.00 Ry     beta= 0.20
     Davidson diagonalization with overlap
     ethr =  2.04E-08,  avg # of iterations =  3.7

     total cpu time spent up to now is      114.0 secs

     total energy              =    -133.98496656 Ry
     estimated scf accuracy    <       0.00000396 Ry

     iteration #  5     ecut=    90.00 Ry     beta= 0.20
     Davidson diagonalization with overlap
     ethr =  9.01E-09,  avg # of iterations =  3.3

     total cpu time spent up to now is      114.3 secs

     total energy              =    -133.98496714 Ry
     estimated scf accuracy    <       0.00000064 Ry

     iteration #  6     ecut=    90.00 Ry     beta= 0.20
     Davidson diagonalization with overlap
     ethr =  1.46E-09,  avg # of iterations =  3.8

     total cpu time spent up to now is      114.7 secs

     total energy              =    -133.98496730 Ry
     estimated scf accuracy    <       0.00000025 Ry

     iteration #  7     ecut=    90.00 Ry     beta= 0.20
     Davidson diagonalization with overlap
     ethr =  5.69E-10,  avg # of iterations =  6.2

     total cpu time spent up to now is      115.1 secs

     total energy              =    -133.98496724 Ry
     estimated scf accuracy    <       0.00000128 Ry

     iteration #  8     ecut=    90.00 Ry     beta= 0.20
     Davidson diagonalization with overlap
     ethr =  5.69E-10,  avg # of iterations =  3.7

     total cpu time spent up to now is      115.4 secs

     total energy              =    -133.98496721 Ry
     estimated scf accuracy    <       0.00000027 Ry

     iteration #  9     ecut=    90.00 Ry     beta= 0.20
     Davidson diagonalization with overlap
     ethr =  5.69E-10,  avg # of iterations =  2.5

     total cpu time spent up to now is      115.7 secs

     total energy              =    -133.98496726 Ry
     estimated scf accuracy    <       0.00000001 Ry

     iteration # 10     ecut=    90.00 Ry     beta= 0.20
     Davidson diagonalization with overlap
     ethr =  2.55E-11,  avg # of iterations =  6.5

     total cpu time spent up to now is      116.1 secs

     total energy              =    -133.98496726 Ry
     estimated scf accuracy    <          5.9E-09 Ry

     iteration # 11     ecut=    90.00 Ry     beta= 0.20
     Davidson diagonalization with overlap
     ethr =  1.34E-11,  avg # of iterations =  4.7

     total cpu time spent up to now is      116.5 secs

     total energy              =    -133.98496726 Ry
     estimated scf accuracy    <          1.5E-09 Ry

     iteration # 12     ecut=    90.00 Ry     beta= 0.20
     Davidson diagonalization with overlap
     ethr =  3.50E-12,  avg # of iterations =  2.5

     total cpu time spent up to now is      116.7 secs

     total energy              =    -133.98496726 Ry
     estimated scf accuracy    <          5.1E-10 Ry

     iteration # 13     ecut=    90.00 Ry     beta= 0.20
     Davidson diagonalization with overlap
     ethr =  1.16E-12,  avg # of iterations =  5.7

     total cpu time spent up to now is      117.1 secs

     total energy              =    -133.98496726 Ry
     estimated scf accuracy    <          1.0E-09 Ry

     iteration # 14     ecut=    90.00 Ry     beta= 0.20
     Davidson diagonalization with overlap
     ethr =  1.16E-12,  avg # of iterations =  4.7

     total cpu time spent up to now is      117.5 secs

     End of self-consistent calculation

          k = 0.0000 0.0000 0.0000 ( 14623 PWs)   bands (ev):

   -17.9849 -17.6520 -15.3639 -15.3639 -11.1436 -11.1042  -8.5480  -8.3856
    -7.2456  -6.7927  -6.7927  -6.3792  -5.6825  -5.6825  -3.5723  -3.5723
    -1.0171  -0.9296  -0.1189   0.3192   0.9158   0.9158

          k = 0.0000 0.0000 0.4005 ( 14687 PWs)   bands (ev):

   -17.8998 -17.6472 -15.3407 -15.3407 -11.6849 -11.4442  -8.7774  -8.0432
    -7.0250  -7.0250  -6.0449  -5.6288  -5.6269  -5.6269  -3.5836  -3.5836
    -1.6600  -1.1065  -0.9222   0.2547   1.1636   1.1636

          k = 0.0000 0.3333 0.0000 ( 14674 PWs)   bands (ev):

   -17.9043 -17.7379 -15.3637 -15.3634 -11.1307 -11.1104  -8.4753  -8.3618
    -7.3104  -6.9182  -6.7796  -6.7625  -5.4029  -5.3414  -3.6848  -3.6828
    -0.7344  -0.6311  -0.3330   0.0279   1.0172   1.0218

          k = 0.0000 0.3333 0.4005 ( 14700 PWs)   bands (ev):

   -17.8359 -17.7093 -15.3465 -15.3457 -11.6192 -11.4974  -8.6305  -8.2643
    -7.0186  -7.0171  -6.1172  -5.9843  -5.4058  -5.3204  -3.6530  -3.6351
    -1.4553  -1.1789  -0.5714   0.0206   1.1145   1.1257

          k = 0.3333 0.3333 0.0000 ( 14745 PWs)   bands (ev):

   -17.8588 -17.7752 -15.3766 -15.3699 -11.1217 -11.1110  -8.5123  -8.4261
    -7.1113  -6.8140  -6.8053  -6.7228  -5.6797  -5.3676  -3.7221  -3.6627
    -0.6269  -0.4192  -0.3631  -0.0188   0.9838   1.0168

          k = 0.3333 0.3333 0.4005 ( 14669 PWs)   bands (ev):

   -17.8004 -17.7368 -15.3529 -15.3522 -11.6047 -11.5412  -8.5053  -8.3153
    -7.0530  -7.0324  -6.0434  -5.8391  -5.6331  -5.3589  -3.6625  -3.6374
    -1.4118  -1.2704  -0.3270  -0.0142   1.0636   1.1429

     highest occupied level (ev):     1.1636

!    total energy              =    -133.98496726 Ry
     estimated scf accuracy    <          3.8E-11 Ry

     The total energy is the sum of the following terms:
     one-electron contribution =     -89.94129304 Ry
     hartree contribution      =      59.49013591 Ry
     xc contribution           =     -39.46872006 Ry
     ewald contribution        =     -63.99903983 Ry
     Dispersion Correction     =      -0.06605024 Ry

     convergence has been achieved in  14 iterations

     Forces acting on atoms (cartesian axes, Ry/au):

     atom    1 type  1   force =     0.00000000    0.00000000    0.00074611
     atom    2 type  1   force =     0.00000000    0.00000000   -0.00074611
     atom    3 type  2   force =     0.00000000    0.00000000    0.00002540
     atom    4 type  2   force =     0.00000000    0.00000000   -0.00002540
     atom    5 type  3   force =    -0.00028110   -0.00028110    0.00004206
     atom    6 type  3   force =     0.00028110    0.00028110    0.00004206
     atom    7 type  3   force =    -0.00028110    0.00028110   -0.00004206
     atom    8 type  3   force =     0.00028110   -0.00028110   -0.00004206
     atom    9 type  4   force =    -0.00062730   -0.00062730   -0.00053169
     atom   10 type  4   force =     0.00062730    0.00062730   -0.00053169
     atom   11 type  4   force =    -0.00062730    0.00062730    0.00053169
     atom   12 type  4   force =     0.00062730   -0.00062730    0.00053169
     atom   13 type  4   force =     0.00022543    0.00022543    0.00013659
     atom   14 type  4   force =    -0.00022543   -0.00022543    0.00013659
     atom   15 type  4   force =     0.00022543   -0.00022543   -0.00013659
     atom   16 type  4   force =    -0.00022543    0.00022543   -0.00013659

     Total force =     0.002552     Total SCF correction =     0.000007
     Energy error            =      3.9E-05 Ry
     Gradient error          =      7.5E-04 Ry/Bohr

     bfgs converged in  24 scf cycles and  23 bfgs steps
     (criteria: energy <  1.0E-04 Ry, force <  1.0E-03 Ry/Bohr)

     End of BFGS Geometry Optimization

     Final energy             =    -133.9849672642 Ry

     File /tmp/ceresoli/urea.bfgs deleted, as requested
Begin final coordinates

ATOMIC_POSITIONS (crystal)
C                0.0000000000        0.5000000000        0.2733113437
C                0.5000000000        0.0000000000        0.7266886313
O                0.0000000000        0.5000000000        0.5704211508
O                0.5000000000        0.0000000000        0.4295788492
N                0.1467079633        0.6467079113        0.1243578557
N                0.8532920047        0.3532920887        0.1243578557
N                0.6467079113        0.8532920047        0.8756421573
N                0.3532920887        0.1467079633        0.8756421573
H                0.2595909709        0.7595909499        0.2310578262
H                0.7404090081        0.2404090291        0.2310578262
H                0.7595909499        0.7404090081        0.7689421488
H                0.2404090291        0.2595909709        0.7689421488
H                0.1381430060        0.6381430170        0.9024540285
H                0.8618569830        0.3618569830        0.9024540285
H                0.6381430170        0.8618569830        0.0975459745
H                0.3618569830        0.1381430060        0.0975459745
End final coordinates



     Writing all to output data dir /tmp/ceresoli/urea.save/ :
     XML data file, charge density, pseudopotentials, collected wavefunctions
 
     init_run     :      0.39s CPU      0.41s WALL (       1 calls)
     electrons    :    110.50s CPU    114.18s WALL (      24 calls)
     update_pot   :      0.28s CPU      0.34s WALL (      23 calls)
     forces       :      2.00s CPU      2.04s WALL (      24 calls)
     force_london :      1.68s CPU      1.68s WALL (      24 calls)

     Called by init_run:
     wfcinit      :      0.11s CPU      0.11s WALL (       1 calls)
     potinit      :      0.20s CPU      0.20s WALL (       1 calls)
     hinit0       :      0.04s CPU      0.04s WALL (       1 calls)

     Called by electrons:
     c_bands      :     90.46s CPU     92.69s WALL (     367 calls)
     sum_band     :     14.02s CPU     14.57s WALL (     367 calls)
     v_of_rho     :      3.13s CPU      3.45s WALL (     391 calls)
     mix_rho      :      1.09s CPU      1.19s WALL (     367 calls)
     energy_londo :      1.74s CPU      1.76s WALL (      24 calls)

     Called by c_bands:
     init_us_2    :      0.75s CPU      0.79s WALL (    4554 calls)
     cegterg      :     89.03s CPU     90.99s WALL (    2202 calls)

     Called by *egterg:
     cdiaghg      :      5.37s CPU      5.49s WALL (   11306 calls)
     h_psi        :     74.22s CPU     75.87s WALL (   11450 calls)
     g_psi        :      0.32s CPU      0.32s WALL (    9242 calls)

     Called by h_psi:
     h_psi:calbec :      1.29s CPU      1.32s WALL (   11450 calls)
     vloc_psi     :     72.13s CPU     73.74s WALL (   11450 calls)
     add_vuspsi   :      0.45s CPU      0.47s WALL (   11450 calls)

     General routines
     calbec       :      1.38s CPU      1.41s WALL (   12026 calls)
     fft          :      1.67s CPU      1.85s WALL (    3957 calls)
     ffts         :      0.15s CPU      0.15s WALL (     367 calls)
     fftw         :     79.84s CPU     81.74s WALL (  339952 calls)
 
     Parallel routines
 
     PWSCF        :   1m53.52s CPU   1m57.67s WALL

 
   This run was terminated on:  15:58: 9  24Sep2026            

=------------------------------------------------------------------------------=
   JOB DONE.
=------------------------------------------------------------------------------=
